[TITLE]
;;Project Title/Notes

[OPTIONS]
;;Option             Value
FLOW_UNITS           CMS
INFILTRATION         GREEN_AMPT
FLOW_ROUTING         DYNWAVE
LINK_OFFSETS         DEPTH
MIN_SLOPE            0
ALLOW_PONDING        NO
SKIP_STEADY_STATE    NO

START_DATE           08/08/2022
START_TIME           12:00:00
REPORT_START_DATE    08/08/2022
REPORT_START_TIME    12:00:00
END_DATE             08/10/2022
END_TIME             02:49:00
SWEEP_START          01/01
SWEEP_END            12/31
DRY_DAYS             0
REPORT_STEP          00:10:00
WET_STEP             00:01:00
DRY_STEP             24:00:00
ROUTING_STEP         0:00:10 
RULE_STEP            00:00:00

INERTIAL_DAMPING     PARTIAL
NORMAL_FLOW_LIMITED  FROUDE
FORCE_MAIN_EQUATION  H-W
VARIABLE_STEP        0.75
LENGTHENING_STEP     0
MIN_SURFAREA         1.167
MAX_TRIALS           8
HEAD_TOLERANCE       0.0015
SYS_FLOW_TOL         5
LAT_FLOW_TOL         5
MINIMUM_STEP         0.5
THREADS              1

[EVAPORATION]
;;Data Source    Parameters
;;-------------- ----------------
CONSTANT         0.0
DRY_ONLY         NO

[RAINGAGES]
;;Name           Format    Interval SCF      Source    
;;-------------- --------- ------ ------ ----------
2                VOLUME    0:10     1.0      TIMESERIES Thiessen_half   

[SUBCATCHMENTS]
;;Name           Rain Gage        Outlet           Area     %Imperv  Width    %Slope   CurbLen  SnowPack        
;;-------------- ---------------- ---------------- -------- -------- -------- -------- -------- ----------------
NBC01-00#1       2                NBC01-00         0.23     0        44.565   0.29     0                        
NBC01-01#1       2                NBC01-01         5.786    0        106.655  3.63     0                        
NBC01-02#1       2                NBC01-02         0.85     0        26.247   0.65     0                        
NBC01-02#2       2                NBC01-02         7.512    0        114.87   6.86     0                        
NBC01-04#1       2                NBC01-04         0.05     0        19.516   2.28     0                        
NBC01-04#2       2                NBC01-04         0.231    0        35.526   4.62     0                        
NBC01-04#3       2                NBC01-04         4.397    0        91.499   4.25     0                        
NBC01-05#1       2                NBC01-05         6.696    0        115.526  4.94     0                        
NBC01-06#1       2                NBC01-06         2.194    0        57.526   4.72     0                        
NBC01-07#1       2                NBC01-07         2.135    0        57.836   4.86     0                        
NBC01-08#1       2                NBC01-08         1.807    0        52.341   4.3      0                        
NBC01-09#1       2                NBC01-09         2.375    0        76.311   3.18     0                        
NBC01-10#1       2                NBC01-10         1.274    0        48.376   3.79     0                        
NBC01-11#1       2                NBC01-11         2.151    0        75.038   2.46     0                        
NBC01-12#1       2                NBC01-12         1.837    0        72.484   1.64     0                        
NBC01-13#1       2                NBC01-13         0.693    0        87.485   0.11     0                        
NBC01-13#2       2                NBC01-13         0.216    0        32.382   9.93     0                        
NBC01-14#1       2                NBC01-14         1.301    0        89.947   1.85     0                        
NBC01-15#1       2                NBC01-15         3.878    0        123.849  7.37     0                        
NBC01-16#1       2                NBC01-16         0.763    0        79.294   2.64     0                        
NBC01-17#1       2                NBC01-17         3.142    0        129.777  9.24     0                        
NBC01-19#1       2                NBC01-19         8.365    0        146.587  5.01     0                        
NBC01-20#1       2                NBC01-20         3.079    0        80.83    0.07     0                        
NBC02-01#1       2                NBC02-01         7.606    0        127.777  7.22     0                        
NBC03-01#1       2                NBC03-01         0.167    0        34.656   6.57     0                        
NBC03-02#1       2                NBC03-02         1.523    0        54.392   4.08     0                        
NBC03-03#1       2                NBC03-03         0.244    0        28.624   5.11     0                        
NBC03-04#1       2                NBC03-04         0.854    0        56.169   5.97     0                        
NBC03-05#1       2                NBC03-05         1.056    0        79.662   1.86     0                        
NBC04-01#1       2                NBC04-01         5.189    0        112.641  4.23     0                        
NBC04-02#1       2                NBC04-02         6.297    0        161.353  4.02     0                        
NBC09-00#1       2                NBC09-00         4.234    0        432.91   14.15    0                        
NBC10-00#1       2                NBC10-00         1.174    0        70.883   2.36     0                        
NBC11-02#1       2                NBC11-02         12.252   0        116.875  4.24     0                        
NBC11-02#2       2                NBC11-02         0.045    0        12.614   7.73     0                        
NBC11-02#3       2                NBC11-02         1.948    0        40.597   1.56     0                        
NBC11-03#1       2                NBC11-03         3.496    0        96.229   0.55     0                        
NBC12-00#1       2                NBC12-00         1.483    0        71.907   3.25     0                        
NBC13-01#1       2                NBC13-01         0.791    0        60.837   0.08     0                        
NBC13-01#2       2                NBC13-01         0.818    0        64.894   4.19     0                        
NBC13-02#1       2                NBC13-02         0.349    0        37.38    0.1      0                        
NBC13-03#1       2                NBC13-03         1.034    0        81.092   0.05     0                        
NBC13-04#1       2                NBC13-04         2.048    0        78.206   0.06     0                        
NBC13-05#1       2                NBC13-05         3.478    0        125.928  0.01     0                        
NBC14-01#1       2                NBC14-01         2.562    0        107.545  0.02     0                        
NBC14-01#2       2                NBC14-01         0.091    0        9.979    7.95     0                        
NBC14-02#1       2                NBC14-02         0.158    0        23.311   0.06     0                        
NBC14-02#2       2                NBC14-02         0.335    0        38.761   2.13     0                        
NBC14-03#1       2                NBC14-03         0.678    0        84.677   0.21     0                        
NBC14-04#1       2                NBC14-04         6.364    0        209.031  0.01     0                        
NBC14-05#1       2                NBC14-05         2.134    0        119.205  0.01     0                        
NBC15-01#1       2                NBC15-01         0.679    0        55.642   0.13     0                        
NBC15-02#1       2                NBC15-02         3.383    0        170.711  0.12     0                        
NBC16-00#1       2                NBC16-00         0.087    0        7.831    0.51     0                        
NBC16-00#2       2                NBC16-00         0.939    0        68.826   0.4      0                        
NBC16-02#1       2                NBC16-02         0.059    0        57.845   0.88     0                        
NBC16-02#2       2                NBC16-02         3.092    0        115.516  0.11     0                        
NBC16-03#1       2                NBC16-03         1.015    0        48.084   0.09     0                        
NBC16-03#2       2                NBC16-03         0.544    0        89.733   0.41     0                        
NBC16-04#1       2                NBC16-04         6.331    0        239.341  0.69     0                        
NBC16-05#1       2                NBC16-05         0.49     0        44.229   0.06     0                        
NBC16-06#1       2                NBC16-06         4.744    0        153.802  0.52     0                        
NBC16-07#1       2                NBC16-07         6.008    0        141.801  0.43     0                        
NBC17-01#1       2                NBC17-01         2.436    0        177.06   1.27     0                        
NBC18-01#1       2                NBC18-01         3.953    0        109.851  1.03     0                        
NBP01-01#1       2                NBP01-01         1.704    0        86.152   0.28     0                        
NBP01-01#2       2                NBP01-01         12.916   0        338.217  0.2      0                        
NBP01-03#1       2                NBP01-03         1.778    0        61.68    0.01     0                        
NBP01-03#2       2                NBP01-03         6.855    0        159.13   0.1      0                        
NBP01-04#1       2                NBP01-04         1.861    0        66.995   1.4      0                        
NBP01-04#2       2                NBP01-04         0.962    0        48.47    0.04     0                        
NBP01-05#1       2                NBP01-05         3.735    0        98.313   0.93     0                        
NBP01-05#2       2                NBP01-05         3.479    0        112.91   0.87     0                        
NBP01-06#1       2                NBP01-06         1.417    0        87.478   0.2      0                        
NBP01-06#2       2                NBP01-06         5.723    0        139.98   0.06     0                        
NBP01-07#1       2                NBP01-07         4.508    0        116.85   0.14     0                        
NBP01-08#1       2                NBP01-08         7.578    0        156.863  1.78     0                        
NBP01-08#2       2                NBP01-08         6.861    0        96.35    2.53     0                        
NBP01-09#1       2                NBP01-09         4.645    0        181.584  0.62     0                        
NBP01-09#2       2                NBP01-09         1.8      0        120.26   1.36     0                        
NBP01-10#1       2                NBP01-10         3.479    0        94.65    1.83     0                        
NBP01-11#1       2                NBP01-11         4.329    0        117.777  0.68     0                        
NBP01-12#1       2                NBP01-12         7.919    0        128.438  3.06     0                        
NBP01-13#1       2                NBP01-13         1.004    0        45.367   1.69     0                        
NBP01-13#2       2                NBP01-13         0.346    0        43.62    0.73     0                        
NBP01-14#1       2                NBP01-14         2.067    0        120.053  0.19     0                        
NBP01-15#1       2                NBP01-15         5.021    0        268.021  0.85     0                        
NBP01-16#1       2                NBP01-16         8.926    0        163.254  0.65     0                        
NBP01-17#1       2                NBP01-17         2.079    0        134.595  1.17     0                        
NBP01-18#1       2                NBP01-18         4.971    0        212.451  0.94     0                        
NBP01-19#1       2                NBP01-19         1.651    0        83.617   0.29     0                        
NBP01-20#1       2                NBP01-20         2.663    0        89.396   0.26     0                        
NBP01-21#1       2                NBP01-21         5.097    0        139.953  0.69     0                        
NBP01-22#1       2                NBP01-22         8.485    0        158.194  0.85     0                        
NBP01-22#2       2                NBP01-22         5.046    0        76.42    0.98     0                        
NBP01-23#1       2                NBP01-23         4.354    0        213.476  1.14     0                        
NBP01-24#1       2                NBP01-24         4.143    0        137.228  0.05     0                        
NBP01-25#1       2                NBP01-25         7.158    0        194.129  0.89     0                        
NBP01-26#1       2                NBP01-26         2.749    0        107.507  0.5      0                        
NBP01-27#1       2                NBP01-27         1.087    0        65.458   4.14     0                        
NBP01-27#2       2                NBP01-27         1.149    0        69.97    0.62     0                        
NBP01-28#1       2                NBP01-28         2.607    0        83.389   0.69     0                        
NBP01-29#1       2                NBP01-29         6.324    0        115.14   3.06     0                        
NBP01-30#1       2                NBP01-30         7.027    0        176.168  3.66     0                        
NBP01-31#1       2                NBP01-31         1.101    0        46       6.92     0                        
NBP02-01#1       2                NBP02-01         8.041    0        345.318  0.15     0                        
NBP02-02#1       2                NBP02-02         13.128   0        199.814  0.63     0                        
NBP02-03#1       2                NBP02-03         10.637   0        162.017  0.27     0                        
NBP02-04#1       2                NBP02-04         20.686   0        310.753  0.32     0                        
NBP03-01#1       2                NBP03-01         1.362    0        59.504   0.31     0                        
NBP03-02#1       2                NBP03-02         0.709    0        60.473   0.19     0                        
NBP03-03#1       2                NBP03-03         2.005    0        97.512   0.19     0                        
NBP03-04#1       2                NBP03-04         14.504   0        237.901  0.41     0                        
NBP04-01#1       2                NBP04-01         2.826    0        120.418  0.13     0                        
NBP04-02#1       2                NBP04-02         4.905    0        67.326   0.23     0                        
NBP04-03#1       2                NBP04-03         0.398    0        50.405   0.06     0                        
NBP04-04#1       2                NBP04-04         0.474    0        63.309   0.09     0                        
NBP04-04#2       2                NBP04-04         3.5      0        159.85   0.16     0                        
NBP04-05#1       2                NBP04-05         0.782    0        45.287   0.17     0                        
NBP04-06#1       2                NBP04-06         0.294    0        56.222   0.21     0                        
NBP04-07#1       2                NBP04-07         9.069    0        159.422  0.27     0                        
NBP04-08#1       2                NBP04-08         4.552    0        108.754  0.17     0                        
NBP04-09#1       2                NBP04-09         2.723    0        190.602  0.05     0                        
NBP04-10#1       2                NBP04-10         2.684    0        56.288   0.24     0                        
NBP04-11#1       2                NBP04-11         5.319    0        122.994  0.05     0                        
NBP04-12#1       2                NBP04-12         5.686    0        85.423   0.01     0                        
NBP04-13#1       2                NBP04-13         8.837    0        148.928  0.25     0                        
NBP05-01#1       2                NBP05-01         3.116    0        136.311  0.06     0                        
NBP05-02#1       2                NBP05-02         2.296    0        87.313   0.42     0                        
NBP05-03#1       2                NBP05-03         5.88     0        192.626  0.11     0                        
NBP06-01#1       2                NBP06-01         4.438    0        109.407  0.19     0                        
NBP06-02#1       2                NBP06-02         8.941    0        125.165  0.22     0                        
NBP06-03#1       2                NBP06-03         4.038    0        117.912  1.31     0                        
NBP06-04#1       2                NBP06-04         3.811    0        123.119  1.03     0                        
NBP06-05#1       2                NBP06-05         7.73     0        243.89   0.26     0                        
NBP06-05#2       2                NBP06-05         2.525    0        117.98   0.93     0                        
NBP06-06#1       2                NBP06-06         5.237    0        205.69   0.36     0                        
NBP06-07#1       2                NBP06-07         10.66    0        129.52   2.68     0                        
NBP06-08#1       2                NBP06-08         0.323    0        61.253   0.17     0                        
NBP06-08#2       2                NBP06-08         0.481    0        57.33    0.64     0                        
NBP06-09#1       2                NBP06-09         6.096    0        171.373  0.48     0                        
NBP06-11#1       2                NBP06-11         1.355    0        70.937   1.74     0                        
NBP06-11#2       2                NBP06-11         4.928    0        142.45   2.31     0                        
NBP06-12#1       2                NBP06-12         4.255    0        142.201  2.41     0                        
NBP07-01#1       2                NBP07-01         0.511    0        57.732   0.51     0                        
NBP07-02#1       2                NBP07-02         4.21     0        148.544  1.96     0                        
NBP08-01#1       2                NBP08-01         8.844    0        163.216  1.98     0                        
NBP08-02#1       2                NBP08-02         0.552    0        45.46    0.59     0                        
NBP08-03#1       2                NBP08-03         0.167    0        27.406   1.67     0                        
NBP08-03#2       2                NBP08-03         4.423    0        108      3.04     0                        
NBP08-06#1       2                NBP08-06         2.69     0        91.448   3.43     0                        
NBP09-01#1       2                NBP09-01         3.263    0        138.438  1.79     0                        
NBP09-01#2       2                NBP09-01         0.954    0        103.88   3.63     0                        
NBP09-02#1       2                NBP09-02         7.675    0        203.676  2.98     0                        
NBP10-01#1       2                NBP10-01         3.989    0        186.482  3.28     0                        
NBP11-01#1       2                NBP11-01         2.74     0        91.957   3.92     0                        
NBP11-02#1       2                NBP11-02         3.369    0        92.713   4.87     0                        
NBP11-03#1       2                NBP11-03         6.449    0        148.497  2.64     0                        
NBP11-04#1       2                NBP11-04         6.417    0        94.074   2.66     0                        
NBP11-05#1       2                NBP11-05         13.847   0        169.719  3.19     0                        
NBP11-06#1       2                NBP11-06         0.422    0        43.564   0.21     0                        
NBP11-06#2       2                NBP11-06         0.808    0        52.72    0.84     0                        
NBP11-07#1       2                NBP11-07         3.709    0        174.287  1.36     0                        
NBP12-01#1       2                NBP12-01         1.346    0        74.413   1.49     0                        
NBP12-02#1       2                NBP12-02         4.316    0        83.557   5.64     0                        
NBP13-01#1       2                NBP13-01         6.965    0        122.263  1.77     0                        
NBP13-02#1       2                NBP13-02         3.994    0        70.951   0.76     0                        
NBP13-03#1       2                NBP13-03         4.226    0        108.816  4.66     0                        
NBP13-04#1       2                NBP13-04         1.252    0        116.367  0.04     0                        
NBP13-05#1       2                NBP13-05         5.33     0        125.738  4.86     0                        
NBP13-06#1       2                NBP13-06         4.201    0        165.27   1.04     0                        
NBP13-07#1       2                NBP13-07         2.418    0        77.93    0.53     0                        
NBP13-08#1       2                NBP13-08         1.333    0        126.039  0.25     0                        
NBP13-09#1       2                NBP13-09         2.588    0        37.979   0.54     0                        
NBP13-10#1       2                NBP13-10         0.622    0        60.908   1.12     0                        
NBP13-11#1       2                NBP13-11         2.677    0        89.938   1.94     0                        
NBP13-11#2       2                NBP13-11         0.99     0        33.33    1.64     0                        
NBP13-12#1       2                NBP13-12         1.579    0        53.802   2.06     0                        
NBP13-13#1       2                NBP13-13         1.367    0        51.16    2.24     0                        
NBP13-14#1       2                NBP13-14         4.596    0        155.28   2.86     0                        
NBP14-01#1       2                NBP14-01         1.603    0        53.716   0.49     0                        
NBP15-01#1       2                NBP15-01         3.053    0        131.106  0.55     0                        
NBPC-00#1        2                NBPC-00          7.368    0        78.2     0.34     0                        
NBPC-01#1        2                NBPC-01          155.882  0        854.62   6.13     0                        
NBPC-09#1        2                NBPC-09          6.882    0        43.07    0.68     0                        
NBPC-09#2        2                NBPC-09          284.154  0        841.741  4.74     0                        
NHM_016#1        2                NHM_016          236.364  0        873.078  15.1     0                        
NNH01-00#1       2                NNH01-00         0.771    0        54.952   0.26     0                        
NNH01-01#1       2                NNH01-01         1.369    0        62.039   0.28     0                        
NNH01-02#1       2                NNH01-02         0.177    0        38.218   0.97     0                        
NNH01-02#2       2                NNH01-02         2.255    0        95.389   2.01     0                        
NNH01-03#1       2                NNH01-03         0.472    0        56.028   0.17     0                        
NNH01-04#1       2                NNH01-04         0.856    0        68.573   1.07     0                        
NNH01-05#1       2                NNH01-05         0.495    0        39.314   0.27     0                        
NNH01-06#1       2                NNH01-06         0.851    0        65.051   1.71     0                        
NNH01-07#1       2                NNH01-07         0.897    0        72.381   0.75     0                        
NNH01-07.1#1     2                NNH01-07.1       0.63     0        20.841   1.79     0                        
NNH01-09#1       2                NNH01-09         0.144    0        22.936   0.21     0                        
NNH01-09#2       2                NNH01-09         0.383    0        41.735   2.48     0                        
NNH01-10#1       2                NNH01-10         0.474    0        28.712   0.16     0                        
NNH01-10#2       2                NNH01-10         2.012    0        64.921   2.13     0                        
NNH01-11#1       2                NNH01-11         0.488    0        52.691   1.05     0                        
NNH01-12#1       2                NNH01-12         0.117    0        20.685   0.72     0                        
NNH01-12#2       2                NNH01-12         1.018    0        91.456   0.73     0                        
NNH01-13#1       2                NNH01-13         2.748    0        99.32    0.01     0                        
NNH01-14#1       2                NNH01-14         0.982    0        119.528  1.31     0                        
NNH01-15#1       2                NNH01-15         6.371    0        157.182  0.35     0                        
NNH01-16#1       2                NNH01-16         1.093    0        94.74    0.82     0                        
NNH01-16#2       2                NNH01-16         0.961    0        50.499   2.71     0                        
NNH01-17#1       2                NNH01-17         3.115    0        108.396  0.16     0                        
NNH01-18#1       2                NNH01-18         0.184    0        38.256   0.04     0                        
NNH01-18#2       2                NNH01-18         0.509    0        42.426   2.99     0                        
NNH01-19#1       2                NNH01-19         0.683    0        53.908   5.57     0                        
NNH01-19#2       2                NNH01-19         0.334    0        32.017   4.91     0                        
NNH01-20#1       2                NNH01-20         0.883    0        29.897   0.01     0                        
NNH01-20#2       2                NNH01-20         0.149    0        23.229   0.05     0                        
NNH01-21#1       2                NNH01-21         0.38     0        56.853   0.96     0                        
NNH01-21#2       2                NNH01-21         0.746    0        70.779   0.31     0                        
NNH01-22#1       2                NNH01-22         5.997    0        127.535  0.35     0                        
NNH01-22#2       2                NNH01-22         0.561    0        46.482   0.38     0                        
NNH01-23#1       2                NNH01-23         2.364    0        94.036   0.25     0                        
NNH01-24#1       2                NNH01-24         2.222    0        71.626   0.16     0                        
NNH01-25#1       2                NNH01-25         4.657    0        98.361   1.05     0                        
NNH01-26#1       2                NNH01-26         0.096    0        60.966   9.15     0                        
NNH01-27#1       2                NNH01-27         1.865    0        62.492   1.37     0                        
NNH01-28#1       2                NNH01-28         0.262    0        40.459   3.77     0                        
NNH01-29#1       2                NNH01-29         1.249    0        58.201   3.56     0                        
NNH02-01#1       2                NNH02-01         0.119    0        22.634   7.55     0                        
NNH02-01#2       2                NNH02-01         0.222    0        41.609   0.36     0                        
NNH02-01#3       2                NNH02-01         0.283    0        43.241   1.04     0                        
NNH02-02#1       2                NNH02-02         1.73     0        105.849  5.92     0                        
NNH03-01#1       2                NNH03-01         0.298    0        49.584   0.15     0                        
NNH03-02#1       2                NNH03-02         0.253    0        44.382   1.97     0                        
NNH03-03#1       2                NNH03-03         7.72     0        117.045  6.35     0                        
NNH04-01#1       2                NNH04-01         0.425    0        47.102   2.44     0                        
NNH04-02#1       2                NNH04-02         2.208    0        94.498   1.87     0                        
NNH04-03#1       2                NNH04-03         0.449    0        40.139   5.47     0                        
NNH04-04#1       2                NNH04-04         3.162    0        100.191  8.59     0                        
NNH05-01#1       2                NNH05-01         1.998    0        58.502   3.87     0                        
NNH05-02#1       2                NNH05-02         0.433    0        38.055   6.62     0                        
NNH05-03#1       2                NNH05-03         0.868    0        36.195   5.57     0                        
NNH06-01#1       2                NNH06-01         0.112    0        27.521   0.98     0                        
NNH07-01#1       2                NNH07-01         3.57     0        73.141   7.41     0                        
NNH07-01#2       2                NNH07-01         0.707    0        49.335   7.71     0                        
NNH07-02#1       2                NNH07-02         2.443    0        145.745  5.01     0                        
NNH07-03#1       2                NNH07-03         1.96     0        129.663  12.24    0                        
NNH07-03#2       2                NNH07-03         0.075    0        20.976   0.67     0                        
NNH07-04#1       2                NNH07-04         2.027    0        71.464   6.08     0                        
NNH07-05#1       2                NNH07-05         1.815    0        66.137   6.24     0                        
NNH07-06#1       2                NNH07-06         5.354    0        130.714  6.02     0                        
NNH07-07#1       2                NNH07-07         0.824    0        51.921   6.47     0                        
NNH07-08#1       2                NNH07-08         4.82     0        85.792   4.19     0                        
NNH07-09#1       2                NNH07-09         0.136    0        28.535   1.7      0                        
NNH07-09#2       2                NNH07-09         0.324    0        40.164   0.17     0                        
NNH07-10#1       2                NNH07-10         0.248    0        45.139   0.04     0                        
NNH07-11#1       2                NNH07-11         0.962    0        88.315   2.08     0                        
NNH07-12#1       2                NNH07-12         1.088    0        61.28    5.27     0                        
NNH07-13#1       2                NNH07-13         2.417    0        57.558   4.57     0                        
NNH07-14#1       2                NNH07-14         6.8      0        135.421  6.25     0                        
NNH08-01#1       2                NNH08-01         0.458    0        80.432   18.81    0                        
NNH08-02#1       2                NNH08-02         1.166    0        49.437   4.35     0                        
NNH08-03#1       2                NNH08-03         2.172    0        118.577  9.66     0                        
NNH09-01#1       2                NNH09-01         2.904    0        94.863   6.01     0                        
NNH10-01#1       2                NNH10-01         14.916   0        284.799  4.84     0                        
NNH10-01#2       2                NNH10-01         0.351    0        35.022   3.93     0                        
NNH10-02#1       2                NNH10-02         3.899    0        206.686  2.22     0                        
NNH10-03#1       2                NNH10-03         3.392    0        118.87   2.31     0                        
NNH10-04#1       2                NNH10-04         0.837    0        28.218   5.26     0                        
NNH11-01#1       2                NNH11-01         0.705    0        62.338   0.75     0                        
NNH11-02#1       2                NNH11-02         0.736    0        67.967   1.95     0                        
NNH11-03#1       2                NNH11-03         0.798    0        42.555   0.41     0                        
NNH11-04#1       2                NNH11-04         2.523    0        93.851   3.6      0                        
NNH12-01#1       2                NNH12-01         0.361    0        45.427   15.65    0                        
NNH12-02#1       2                NNH12-02         1.135    0        48.369   5.85     0                        
NNH13-01#1       2                NNH13-01         0.068    0        25.495   6.75     0                        
NNH14-01#1       2                NNH14-01         5.502    0        148.099  7.69     0                        
NNH14-02#1       2                NNH14-02         0.683    0        73.541   2.9      0                        
NNH15-01#1       2                NNH15-01         0.04     0        30.376   3.91     0                        
NNH15-02#1       2                NNH15-02         0.47     0        44.743   0.4      0                        
NNH15-03#1       2                NNH15-03         1.621    0        46.378   6.08     0                        
NNH15-04#1       2                NNH15-04         2.08     0        56.369   6.23     0                        
NNH15-05#1       2                NNH15-05         0.567    0        40.16    4.38     0                        
NNH15-05#2       2                NNH15-05         0.206    0        29.824   0.77     0                        
NNH15-06#1       2                NNH15-06         1.212    0        62.551   5.3      0                        
NNH15-07#1       2                NNH15-07         1.6      0        35.494   2.69     0                        
NNH16-01#1       2                NNH16-01         8.626    0        165.906  5.26     0                        
NNH17-01#1       2                NNH17-01         4.801    0        199.846  0.84     0                        
NNH17-02#1       2                NNH17-02         3.078    0        94.726   7.18     0                        
NNH18-01#1       2                NNH18-01         0.403    0        42.496   1.73     0                        
NNH18-02#1       2                NNH18-02         0.389    0        57.046   4.83     0                        
NNH18-03#1       2                NNH18-03         0.607    0        67.83    4.25     0                        
NNH18-04#1       2                NNH18-04         0.211    0        39.129   3.59     0                        
NNH18-05#1       2                NNH18-05         1.601    0        115.134  5.56     0                        
NNH18-06#1       2                NNH18-06         2.468    0        99.221   1.26     0                        
NNH18-07#1       2                NNH18-07         0.402    0        35.657   0.75     0                        
NSC01-01#1       2                NSC01-01         1.045    0        95.6     0.6      0                        
NSC01-02#1       2                NSC01-02         0.743    0        61.336   0.01     0                        
NSC01-03#1       2                NSC01-03         3.923    0        175.131  0.78     0                        
NSC01-04#1       2                NSC01-04         1.504    0        71.719   1.04     0                        
NSC01-05#1       2                NSC01-05         0.276    0        19.053   0.57     0                        
NSC01-06#1       2                NSC01-06         0.21     0        13.236   0.33     0                        
NSC01-06#2       2                NSC01-06         0.502    0        36.81    1.27     0                        
NSC01-06#3       2                NSC01-06         0.88     0        62.49    1.39     0                        
NSC01-07#1       2                NSC01-07         0.211    0        14.142   0.04     0                        
NSC01-07#2       2                NSC01-07         1.118    0        38.687   0.16     0                        
NSC01-08#1       2                NSC01-08         1.222    0        89.309   0.39     0                        
NSC01-09#1       2                NSC01-09         1.945    0        98.585   1.81     0                        
NSC01-10#1       2                NSC01-10         6.73     0        134.342  1.12     0                        
NSC01-11#1       2                NSC01-11         0.877    0        55.812   2.28     0                        
NSC01-12#1       2                NSC01-12         3.761    0        118.16   3.74     0                        
NSC01-13#1       2                NSC01-13         0.354    0        37.831   2.86     0                        
NSC01-14#1       2                NSC01-14         6.939    0        183.96   4.19     0                        
NSC01-15#1       2                NSC01-15         1.699    0        50.077   4.29     0                        
NSC01-16#1       2                NSC01-16         6.336    0        132.616  3.37     0                        
NSC01-17#1       2                NSC01-17         2.26     0        108.282  5.87     0                        
NSC01-18#1       2                NSC01-18         0.346    0        32.514   3.04     0                        
NSC01-19#1       2                NSC01-19         3.07     0        98.519   3.96     0                        
NSC01-20#1       2                NSC01-20         0.193    0        69.996   3.81     0                        
NSC01-21#1       2                NSC01-21         14.151   0        238.229  1.63     0                        
NSC01-22#1       2                NSC01-22         2.777    0        231.203  35.59    0                        
NSC02-01#1       2                NSC02-01         1.652    0        36.083   3.24     0                        
NSC02-02#1       2                NSC02-02         0.189    0        70.563   0.37     0                        
NSC02-03#1       2                NSC02-03         0.166    0        20.867   3.37     0                        
NSC02-03#2       2                NSC02-03         0.331    0        32.788   3.02     0                        
NSC02-03#3       2                NSC02-03         0.193    0        29.001   2.05     0                        
NSC02-04#1       2                NSC02-04         0.566    0        29.266   2.25     0                        
NSC03-01#1       2                NSC03-01         3.023    0        83.807   1.18     0                        
NSC04-01#1       2                NSC04-01         5.59     0        140.776  3.48     0                        
NSC05-01#1       2                NSC05-01         1.425    0        111.268  2.17     0                        
NSC05-02#1       2                NSC05-02         1.239    0        94.009   3.8      0                        
NSC05-03#1       2                NSC05-03         2.44     0        116.052  0.85     0                        
NSC05-04#1       2                NSC05-04         1.575    0        79.25    3.6      0                        
NSC05-05#1       2                NSC05-05         0.482    0        86.444   2.17     0                        
NSC05-06#1       2                NSC05-06         1.285    0        87.544   6.66     0                        
NSC05-07#1       2                NSC05-07         0.922    0        64.414   7.03     0                        
NSC05-08#1       2                NSC05-08         1.162    0        49.073   3.73     0                        
NSC06-01#1       2                NSC06-01         1.64     0        74.003   1.35     0                        
NSC06-01#2       2                NSC06-01         1.983    0        99.17    0.31     0                        
NSC06-02#1       2                NSC06-02         7.189    0        170.134  1.43     0                        
NSC06-03#1       2                NSC06-03         0.149    0        25.871   1.82     0                        
NSC06-04#1       2                NSC06-04         0.763    0        50.009   0.72     0                        
NSC06-04#2       2                NSC06-04         0.361    0        41.022   1.19     0                        
NSC06-05#1       2                NSC06-05         17.436   0        363.97   2.01     0                        
NSC07-01#1       2                NSC07-01         0.243    0        31.371   2        0                        
NSC07-02#1       2                NSC07-02         0.48     0        48.094   0.82     0                        
NSC07-02#2       2                NSC07-02         0.071    0        25.255   0.25     0                        
NSC07-03#1       2                NSC07-03         1.056    0        78.776   0.56     0                        
NSC07-04#1       2                NSC07-04         5.447    0        130.658  3.09     0                        
NSC08-01#1       2                NSC08-01         8.874    0        194.729  3.67     0                        
NSC08-02#1       2                NSC08-02         4.739    0        119.439  3.28     0                        
NSC08-03#1       2                NSC08-03         28.821   0        412.457  8.85     0                        
NSC09-01#1       2                NSC09-01         0.262    0        41.906   0.59     0                        
NSC09-02#1       2                NSC09-02         2.08     0        66.162   1.08     0                        
NSC10-00#1       2                NSC10-00         1.017    0        71.072   0.24     0                        
NSC10-01#1       2                NSC10-01         3.124    0        110.702  4.15     0                        
NSC10-02#1       2                NSC10-02         0.734    0        61.6     3.37     0                        
NSC10-03#1       2                NSC10-03         0.672    0        54.094   1.63     0                        
NSC10-04#1       2                NSC10-04         12.084   0        320.573  3.1      0                        
NSC10-04#2       2                NSC10-04         0.223    0        29.628   1.13     0                        
NSC10-05#1       2                NSC10-05         1.522    0        75.921   0.55     0                        
NSC10-06#1       2                NSC10-06         0.238    0        37.479   1.2      0                        
NSC10-06#2       2                NSC10-06         6.865    0        109.903  3.14     0                        
NSC10-07#1       2                NSC10-07         2.092    0        87.097   2.29     0                        
NSC10-08#1       2                NSC10-08         1.296    0        70.135   0.24     0                        
NSC10-08#2       2                NSC10-08         0.189    0        30.607   3.45     0                        
NSC10-09#1       2                NSC10-09         2.296    0        80.525   1.83     0                        
NSC10-10#1       2                NSC10-10         8.086    0        117.196  3.97     0                        
NSC10-11#1       2                NSC10-11         2.545    0        128.588  2.61     0                        
NSC10-12#1       2                NSC10-12         4.038    0        62.595   4.67     0                        
NSC10-13#1       2                NSC10-13         2.166    0        90.962   2.08     0                        
NSC10-14#1       2                NSC10-14         1.369    0        81.053   2.77     0                        
NSC10-15#1       2                NSC10-15         2.469    0        131.928  3.72     0                        
NSC10-16#1       2                NSC10-16         1.564    0        42.519   5.77     0                        
NSC10-17#1       2                NSC10-17         31.256   0        418.42   8.39     0                        
NSC11-01#1       2                NSC11-01         4.221    0        99.91    3.94     0                        
NSC11-02#1       2                NSC11-02         1.859    0        78.992   4.92     0                        
NSC11-03#1       2                NSC11-03         0.927    0        75.446   5.03     0                        
NSC11-04#1       2                NSC11-04         0.755    0        68.284   7.45     0                        
NSC11-05#1       2                NSC11-05         0.99     0        60.231   7.04     0                        
NSC12-01#1       2                NSC12-01         1.335    0        72.695   1.96     0                        
NSC12-01#2       2                NSC12-01         0.45     0        26.605   0.21     0                        
NSC12-02#1       2                NSC12-02         2.02     0        123.428  5.79     0                        
NSC12-03#1       2                NSC12-03         2.845    0        86.143   1.82     0                        
NSC12-04#1       2                NSC12-04         0.969    0        50.444   0.16     0                        
NSC12-05#1       2                NSC12-05         23.107   0        288.83   9.17     0                        
NSC13-01#1       2                NSC13-01         1.918    0        45.717   4.32     0                        
NSC13-02#1       2                NSC13-02         3.314    0        111.202  5.04     0                        
NSC13-03#1       2                NSC13-03         0.894    0        69.771   7.68     0                        
NSC14-01#1       2                NSC14-01         0.903    0        113.329  2.61     0                        
NSC15-01#1       2                NSC15-01         6.563    0        144.329  5.56     0                        
NSC15-02#1       2                NSC15-02         5.59     0        138.505  4.87     0                        
NSC15-03#1       2                NSC15-03         3.557    0        92.445   5.97     0                        
NSC15-04#1       2                NSC15-04         7.228    0        190.295  6.19     0                        
NSC15-05#1       2                NSC15-05         3.796    0        85.606   11.88    0                        
NSC15-06#1       2                NSC15-06         1.955    0        42.548   2.43     0                        
NSC15-06#2       2                NSC15-06         0.418    0        36.942   0.95     0                        
NSC15-07#1       2                NSC15-07         0.688    0        61.577   0.34     0                        
NSC15-07#2       2                NSC15-07         0.254    0        42.569   1.17     0                        
NSC15-08#1       2                NSC15-08         3.369    0        81       2.31     0                        
NSC15-08#2       2                NSC15-08         0.147    0        31.651   0.32     0                        
NSC16-01#1       2                NSC16-01         3.026    0        62.53    10.96    0                        
NSC16-02#1       2                NSC16-02         4.018    0        86.862   11.61    0                        
NSC16-03#1       2                NSC16-03         0.302    0        41.716   4.26     0                        
NSC16-03#2       2                NSC16-03         4.474    0        146.03   1.9      0                        
NSC16-04#1       2                NSC16-04         0.199    0        39.011   6.36     0                        
NSC16-05#1       2                NSC16-05         0.516    0        81.528   7.32     0                        
NSC17-01#1       2                NSC17-01         16.383   0        369.679  3.37     0                        
NSC18-01#1       2                NSC18-01         0.192    0        37.457   0.41     0                        
NSC18-02#1       2                NSC18-02         0.564    0        73.376   0.52     0                        
NSC18-03#1       2                NSC18-03         0.375    0        40.699   0.86     0                        
NSC19-01#1       2                NSC19-01         0.413    0        55.353   0.15     0                        
NSC19-02#1       2                NSC19-02         0.165    0        32.491   0.26     0                        
NSC19-03#1       2                NSC19-03         1.612    0        73.903   1.12     0                        
NSC19-04#1       2                NSC19-04         0.366    0        46.246   0.34     0                        
NSC19-05#1       2                NSC19-05         1.877    0        84.925   2.31     0                        
NSC19-06#1       2                NSC19-06         3.29     0        146.098  3.7      0                        
NSC19-07#1       2                NSC19-07         3.288    0        92.125   3.03     0                        
NSC19-08#1       2                NSC19-08         5.402    0        146.456  4.07     0                        
NSC19-09#1       2                NSC19-09         3.574    0        96.523   5.57     0                        
NSC19-09#2       2                NSC19-09         0.909    0        80.887   1.39     0                        
NSC19-10#1       2                NSC19-10         1.423    0        84.113   6.49     0                        
NSC19-11#1       2                NSC19-11         14.167   0        203.352  4.59     0                        
NSC19-12#1       2                NSC19-12         11.231   0        237.133  9.71     0                        
NSC20-01#1       2                NSC20-01         6.099    0        124.217  4.27     0                        
NSC20-02#1       2                NSC20-02         3.361    0        88.77    2.93     0                        
NSC20-03#1       2                NSC20-03         0.47     0        84.814   0.85     0                        
NSC20-04#1       2                NSC20-04         0.997    0        94.131   0.76     0                        
NSC20-04#2       2                NSC20-04         0.615    0        55.811   1.96     0                        
NSC20-05#1       2                NSC20-05         0.584    0        96.359   1.25     0                        
NSC20-06#1       2                NSC20-06         1.179    0        108.535  5.21     0                        
NSC20-07#1       2                NSC20-07         1.931    0        127.465  0.31     0                        
NSC20-08#1       2                NSC20-08         0.64     0        87.518   0.45     0                        
NSC20-09#1       2                NSC20-09         3.871    0        141.141  0.58     0                        
NSC20-09#2       2                NSC20-09         0.042    0        15.862   0.61     0                        
NSC20-10#1       2                NSC20-10         23.134   0        331.532  6.53     0                        
NSC21-01#1       2                NSC21-01         0.61     0        45.183   1.19     0                        
NSC21-01#2       2                NSC21-01         0.32     0        32.602   0.02     0                        
NSC21-02#1       2                NSC21-02         2.123    0        63.626   4.92     0                        
NSC21-03#1       2                NSC21-03         1.537    0        94.431   4.11     0                        
NSC21-04#1       2                NSC21-04         0.42     0        47.918   6.28     0                        
NSC21-05#1       2                NSC21-05         0.589    0        95.527   7.48     0                        
NSC21-06#1       2                NSC21-06         2.533    0        85.16    7.4      0                        
NSC22-01#1       2                NSC22-01         6.409    0        88.563   6.09     0                        
NSC23-01#1       2                NSC23-01         0.44     0        68.411   3.33     0                        
NSC23-02#1       2                NSC23-02         2.325    0        88.048   3.29     0                        
NSC23-03#1       2                NSC23-03         1.155    0        74.637   3.74     0                        
NSC23-04#1       2                NSC23-04         3.379    0        148.231  20.76    0                        
NSR01-00#1       2                NSR01-00         0.165    0        50.015   2.98     0                        
NSR01-01#1       2                NSR01-01         0.217    0        33.133   2.94     0                        
NSR01-01#2       2                NSR01-01         5.752    0        114.848  0.78     0                        
NSR01-02#1       2                NSR01-02         7.147    0        126.15   4.28     0                        
NSR01-03#1       2                NSR01-03         2.457    0        103.115  1.09     0                        
NSR01-05#1       2                NSR01-05         0.148    0        25.672   0.5      0                        
NSR01-05#2       2                NSR01-05         1.621    0        47.725   6.12     0                        
NSR01-06#1       2                NSR01-06         1.392    0        101.214  0.81     0                        
NSR01-07#1       2                NSR01-07         4.329    0        157.157  5.86     0                        
NSR01-08#1       2                NSR01-08         12.391   0        211.123  5.8      0                        
NSR01-09#1       2                NSR01-09         0.653    0        35.288   6.1      0                        
NSR01-10#1       2                NSR01-10         0.177    0        28.41    4.32     0                        
NSR01-11#1       2                NSR01-11         6.587    0        151.164  5.87     0                        
NSR02-02#1       2                NSR02-02         0.491    0        46.475   0.1      0                        
NSR02-02#2       2                NSR02-02         1.319    0        40.867   2.17     0                        
NSR02-02#3       2                NSR02-02         0.146    0        36.141   0.49     0                        
NSR02-03#1       2                NSR02-03         1.14     0        66.807   1.57     0                        
NSR02-03#2       2                NSR02-03         0.097    0        19.992   0.64     0                        
NSR02-04#1       2                NSR02-04         0.402    0        45.921   0.58     0                        
NSR02-05#1       2                NSR02-05         8.527    0        155.195  6.85     0                        
NYS01-02#1       2                NYS01-02         1.374    0        42.432   0.73     0                        
NYS01-02#2       2                NYS01-02         1.367    0        67.118   0.05     0                        
NYS01-03#1       2                NYS01-03         0.092    0        21.672   0.28     0                        
NYS01-04#1       2                NYS01-04         4.034    0        80.956   1.55     0                        
NYS01-04#2       2                NYS01-04         5.868    0        150.941  0.12     0                        
NYS01-05#1       2                NYS01-05         2.854    0        122.893  0.44     0                        
NYS01-06#1       2                NYS01-06         1.276    0        82.219   0.66     0                        
NYS01-06#2       2                NYS01-06         0.73     0        81.56    0.15     0                        
NYS01-07#1       2                NYS01-07         4.42     0        70.991   1.69     0                        
NYS01-08#1       2                NYS01-08         0.534    0        32.668   0.49     0                        
NYS01-08#2       2                NYS01-08         0.02     0        10.176   8.3      0                        
NYS01-08#3       2                NYS01-08         0.028    0        15.735   1.53     0                        
NYS01-08#4       2                NYS01-08         0.085    0        15.042   1.49     0                        
NYS01-09#1       2                NYS01-09         8.235    0        79.048   2.89     0                        
NYS01-10#1       2                NYS01-10         1.712    0        70.982   1.24     0                        
NYS01-11#1       2                NYS01-11         1.423    0        60.787   0.34     0                        
NYS01-12#1       2                NYS01-12         0.986    0        49.426   2.46     0                        
NYS01-12#2       2                NYS01-12         0.818    0        61.74    1.72     0                        
NYS01-13#1       2                NYS01-13         0.361    0        36.094   0.31     0                        
NYS01-13#2       2                NYS01-13         0.591    0        56.537   0.77     0                        
NYS01-14#1       2                NYS01-14         0.993    0        74.081   2.6      0                        
NYS01-15#1       2                NYS01-15         1.998    0        80.24    2.55     0                        
NYS01-16#1       2                NYS01-16         1.458    0        90.318   0.92     0                        
NYS01-17#1       2                NYS01-17         0.377    0        28.07    1.86     0                        
NYS01-17#2       2                NYS01-17         0.154    0        32.338   0.42     0                        
NYS01-18#1       2                NYS01-18         0.452    0        30.611   1.52     0                        
NYS01-18#2       2                NYS01-18         0.419    0        35.616   0.88     0                        
NYS01-19#1       2                NYS01-19         5.629    0        126.329  1.19     0                        
NYS02-00#1       2                NYS02-00         0.682    0        36.469   0.16     0                        
NYS02-01#1       2                NYS02-01         2.942    0        96.316   6.21     0                        
NYS02-01#2       2                NYS02-01         0.322    0        47.039   1.26     0                        
NYS02-02#1       2                NYS02-02         0.317    0        53.88    0.58     0                        
NYS02-03#1       2                NYS02-03         3.669    0        80.173   4.5      0                        
NYS02-04#1       2                NYS02-04         0.56     0        39.591   3.42     0                        
NYS02-05#1       2                NYS02-05         3.206    0        95.857   8.05     0                        
NYS02-06#1       2                NYS02-06         0.317    0        33.161   13.63    0                        
NYS03-01#1       2                NYS03-01         4.062    0        92.938   8.15     0                        
NYS05-00#1       2                NYS05-00         0.122    0        29.175   0.41     0                        
NYS05-00#2       2                NYS05-00         0.145    0        31.7     0.37     0                        
NYS05-00#3       2                NYS05-00         1.453    0        42.59    0.15     0                        
NYS05-02#1       2                NYS05-02         0.201    0        42.713   0.19     0                        
NYS05-02#2       2                NYS05-02         0.698    0        44.971   6.88     0                        
NYS05-03#1       2                NYS05-03         0.289    0        59.81    0.19     0                        
NYS05-04#1       2                NYS05-04         0.123    0        42.91    0.07     0                        
NYS05-05#1       2                NYS05-05         0.68     0        78.837   4.87     0                        
NYS05-06#1       2                NYS05-06         1.31     0        79.658   1.69     0                        
NYS05-07#1       2                NYS05-07         1.448    0        85.805   3.18     0                        
NYS05-08#1       2                NYS05-08         1.395    0        81.333   0.85     0                        
NYS05-09#1       2                NYS05-09         0.329    0        44.681   0.45     0                        
NYS05-10#1       2                NYS05-10         0.159    0        48.839   0.34     0                        
NYS05-11#1       2                NYS05-11         0.157    0        38.905   0.57     0                        
NYS06-01#1       2                NYS06-01         0.1      0        20       1        0                        
NYS07-01#1       2                NYS07-01         0.81     0        99.899   1.37     0                        
NYS07-02#1       2                NYS07-02         2.999    0        111.281  3.45     0                        
NYS08-02#1       2                NYS08-02         0.044    0        9.925    0.01     0                        
NYS08-02#2       2                NYS08-02         8.135    0        138.358  2.77     0                        
NYS08-03#1       2                NYS08-03         0.151    0        9.184    0.01     0                        
NYS08-04#1       2                NYS08-04         0.158    0        9.266    1.67     0                        
NYS08-05#1       2                NYS08-05         0.987    0        59.495   3.53     0                        
NYS08-06#1       2                NYS08-06         1.529    0        90.937   4.66     0                        
NYS08-07#1       2                NYS08-07         3.854    0        169.905  2.92     0                        
NYS08-08#1       2                NYS08-08         5.217    0        172.892  6.08     0                        
NYS08-09#1       2                NYS08-09         3.629    0        85.623   5.84     0                        
NYS08-10#1       2                NYS08-10         0.242    0        37.091   0.55     0                        
NYS08-10#2       2                NYS08-10         0.342    0        56.217   0.84     0                        
NYS08-10#3       2                NYS08-10         0.68     0        43.706   5.52     0                        
NYS08-11#1       2                NYS08-11         9.462    0        189.201  4.98     0                        
NYS08-12#1       2                NYS08-12         6.928    0        162.919  6.97     0                        
NYS09-01#1       2                NYS09-01         0.148    0        30.349   0.16     0                        
NYS09-02#1       2                NYS09-02         2.334    0        75.305   7        0                        
NYS10-01#1       2                NYS10-01         2.087    0        101.24   3.55     0                        
NYS10-02#1       2                NYS10-02         4.006    0        121.099  5.35     0                        
NYS11-01#1       2                NYS11-01         2.696    0        96.388   4.51     0                        
NYS11-02#1       2                NYS11-02         0.445    0        49.04    6.27     0                        
NYS11-03#1       2                NYS11-03         0.872    0        43.732   5.5      0                        
NYS11-04#1       2                NYS11-04         1.864    0        58.656   3.07     0                        
NYS12-01#1       2                NYS12-01         0.762    0        115.179  3.72     0                        
NYS12-02#1       2                NYS12-02         23.834   0        243.078  3.11     0                        
NYS12-03#1       2                NYS12-03         5.025    0        111.827  2.47     0                        
NYS12-04#1       2                NYS12-04         4.857    0        107.239  1.33     0                        
NYS12-05#1       2                NYS12-05         1.838    0        272.346  1.79     0                        
NYS12-06#1       2                NYS12-06         0.823    0        27.94    2.26     0                        
NYS13-01#1       2                NYS13-01         0.086    0        8.514    1.41     0                        
NYS13-01#2       2                NYS13-01         0.107    0        30.17    1.44     0                        
NYS13-02#1       2                NYS13-02         0.109    0        8.037    2.24     0                        
NYS13-03#1       2                NYS13-03         0.119    0        8.559    3.57     0                        
NYS13-04#1       2                NYS13-04         0.164    0        13.935   0.65     0                        
NYS13-05#1       2                NYS13-05         0.099    0        12.584   0.31     0                        
NYS13-06#1       2                NYS13-06         0.117    0        10.924   0.05     0                        
NYS13-07#1       2                NYS13-07         0.158    0        16.263   1.78     0                        
NYS13-08#1       2                NYS13-08         0.1      0        20       1        0                        
NYS14-01#1       2                NYS14-01         0.528    0        67.489   1.69     0                        
NYS14-02#1       2                NYS14-02         0.591    0        46.385   2.02     0                        
NYS14-03#1       2                NYS14-03         0.793    0        55.494   4.31     0                        
NYS15-01#1       2                NYS15-01         0.079    0        14.723   1.6      0                        
NYS15-02#1       2                NYS15-02         0.141    0        24.251   0.5      0                        
NYS15-03#1       2                NYS15-03         1.597    0        33.141   1.9      0                        
NYS15-03#2       2                NYS15-03         0.285    0        36.389   0.24     0                        
NYS16-01#1       2                NYS16-01         0.063    0        20.118   1.59     0                        
NYS16-02#1       2                NYS16-02         0.255    0        41.109   1.49     0                        
NYS16-03#1       2                NYS16-03         0.426    0        49.723   2.44     0                        
NYS16-04#1       2                NYS16-04         1.033    0        36.765   2.2      0                        
NYS17-01#1       2                NYS17-01         5.264    0        151.099  2.51     0                        
NYS18-01#1       2                NYS18-01         1.97     0        77.051   3.04     0                        
NYS18-02#1       2                NYS18-02         4.042    0        170.668  0.77     0                        
SDCM_006#1       2                SDCM_006         121.654  0        679.233  9.48     0                        
SDCM_010#1       2                SDCM_010         12.704   0        244.298  23.06    0                        
SDCM_016_1#1     2                SDCM_016_1       23.949   0        270.538  7.75     0                        
SDCM_020#1       2                SDCM_020         138.035  0        590.969  6.19     0                        
SDCM_026#1       2                SDCM_026         199.729  0        837.909  10.06    0                        
SDCM_032#1       2                SDCM_032         240.054  0        950.542  3.87     0                        
SDCM_039#1       2                SDCM_039         144.381  0        707.257  2.7      0                        

[SUBAREAS]
;;Subcatchment   N-Imperv   N-Perv     S-Imperv   S-Perv     PctZero    RouteTo    PctRouted 
;;-------------- ---------- ---------- ---------- ---------- ---------- ---------- ----------
NBC01-00#1       0.014      0.03       0          0          25         OUTLET    
NBC01-01#1       0.014      0.03       0          0          25         OUTLET    
NBC01-02#1       0.014      0.03       0          0          25         OUTLET    
NBC01-02#2       0.014      0.03       0          0          25         OUTLET    
NBC01-04#1       0.014      0.03       0          0          25         OUTLET    
NBC01-04#2       0.014      0.03       0          0          25         OUTLET    
NBC01-04#3       0.014      0.03       0          0          25         OUTLET    
NBC01-05#1       0.014      0.03       0          0          25         OUTLET    
NBC01-06#1       0.014      0.03       0          0          25         OUTLET    
NBC01-07#1       0.014      0.03       0          0          25         OUTLET    
NBC01-08#1       0.014      0.03       0          0          25         OUTLET    
NBC01-09#1       0.014      0.03       0          0          25         OUTLET    
NBC01-10#1       0.014      0.03       0          0          25         OUTLET    
NBC01-11#1       0.014      0.03       0          0          25         OUTLET    
NBC01-12#1       0.014      0.03       0          0          25         OUTLET    
NBC01-13#1       0.014      0.03       0          0          25         OUTLET    
NBC01-13#2       0.014      0.03       0          0          25         OUTLET    
NBC01-14#1       0.014      0.03       0          0          25         OUTLET    
NBC01-15#1       0.014      0.03       0          0          25         OUTLET    
NBC01-16#1       0.014      0.03       0          0          25         OUTLET    
NBC01-17#1       0.014      0.03       0          0          25         OUTLET    
NBC01-19#1       0.014      0.03       0          0          25         OUTLET    
NBC01-20#1       0.014      0.03       0          0          25         OUTLET    
NBC02-01#1       0.014      0.03       0          0          25         OUTLET    
NBC03-01#1       0.014      0.03       0          0          25         OUTLET    
NBC03-02#1       0.014      0.03       0          0          25         OUTLET    
NBC03-03#1       0.014      0.03       0          0          25         OUTLET    
NBC03-04#1       0.014      0.03       0          0          25         OUTLET    
NBC03-05#1       0.014      0.03       0          0          25         OUTLET    
NBC04-01#1       0.014      0.03       0          0          25         OUTLET    
NBC04-02#1       0.014      0.03       0          0          25         OUTLET    
NBC09-00#1       0.014      0.03       0          0          25         OUTLET    
NBC10-00#1       0.014      0.03       0          0          25         OUTLET    
NBC11-02#1       0.014      0.03       0          0          25         OUTLET    
NBC11-02#2       0.014      0.03       0          0          25         OUTLET    
NBC11-02#3       0.014      0.03       0          0          25         OUTLET    
NBC11-03#1       0.014      0.03       0          0          25         OUTLET    
NBC12-00#1       0.014      0.03       0          0          25         OUTLET    
NBC13-01#1       0.014      0.03       0          0          25         OUTLET    
NBC13-01#2       0.014      0.03       0          0          25         OUTLET    
NBC13-02#1       0.014      0.03       0          0          25         OUTLET    
NBC13-03#1       0.014      0.03       0          0          25         OUTLET    
NBC13-04#1       0.014      0.03       0          0          25         OUTLET    
NBC13-05#1       0.014      0.03       0          0          25         OUTLET    
NBC14-01#1       0.014      0.03       0          0          25         OUTLET    
NBC14-01#2       0.014      0.03       0          0          25         OUTLET    
NBC14-02#1       0.014      0.03       0          0          25         OUTLET    
NBC14-02#2       0.014      0.03       0          0          25         OUTLET    
NBC14-03#1       0.014      0.03       0          0          25         OUTLET    
NBC14-04#1       0.014      0.03       0          0          25         OUTLET    
NBC14-05#1       0.014      0.03       0          0          25         OUTLET    
NBC15-01#1       0.014      0.03       0          0          25         OUTLET    
NBC15-02#1       0.014      0.03       0          0          25         OUTLET    
NBC16-00#1       0.014      0.03       0          0          25         OUTLET    
NBC16-00#2       0.014      0.03       0          0          25         OUTLET    
NBC16-02#1       0.014      0.03       0          0          25         OUTLET    
NBC16-02#2       0.014      0.03       0          0          25         OUTLET    
NBC16-03#1       0.014      0.03       0          0          25         OUTLET    
NBC16-03#2       0.014      0.03       0          0          25         OUTLET    
NBC16-04#1       0.014      0.03       0          0          25         OUTLET    
NBC16-05#1       0.014      0.03       0          0          25         OUTLET    
NBC16-06#1       0.014      0.03       0          0          25         OUTLET    
NBC16-07#1       0.014      0.03       0          0          25         OUTLET    
NBC17-01#1       0.014      0.03       0          0          25         OUTLET    
NBC18-01#1       0.014      0.03       0          0          25         OUTLET    
NBP01-01#1       0.014      0.03       0          0          25         OUTLET    
NBP01-01#2       0.014      0.03       0          0          25         OUTLET    
NBP01-03#1       0.014      0.03       0          0          25         OUTLET    
NBP01-03#2       0.014      0.03       0          0          25         OUTLET    
NBP01-04#1       0.014      0.03       0          0          25         OUTLET    
NBP01-04#2       0.014      0.03       0          0          25         OUTLET    
NBP01-05#1       0.014      0.03       0          0          25         OUTLET    
NBP01-05#2       0.014      0.03       0          0          25         OUTLET    
NBP01-06#1       0.014      0.03       0          0          25         OUTLET    
NBP01-06#2       0.014      0.03       0          0          25         OUTLET    
NBP01-07#1       0.014      0.03       0          0          25         OUTLET    
NBP01-08#1       0.014      0.03       0          0          25         OUTLET    
NBP01-08#2       0.014      0.03       0          0          25         OUTLET    
NBP01-09#1       0.014      0.03       0          0          25         OUTLET    
NBP01-09#2       0.014      0.03       0          0          25         OUTLET    
NBP01-10#1       0.014      0.03       0          0          25         OUTLET    
NBP01-11#1       0.014      0.03       0          0          25         OUTLET    
NBP01-12#1       0.014      0.03       0          0          25         OUTLET    
NBP01-13#1       0.014      0.03       0          0          25         OUTLET    
NBP01-13#2       0.014      0.03       0          0          25         OUTLET    
NBP01-14#1       0.014      0.03       0          0          25         OUTLET    
NBP01-15#1       0.014      0.03       0          0          25         OUTLET    
NBP01-16#1       0.014      0.03       0          0          25         OUTLET    
NBP01-17#1       0.014      0.03       0          0          25         OUTLET    
NBP01-18#1       0.014      0.03       0          0          25         OUTLET    
NBP01-19#1       0.014      0.03       0          0          25         OUTLET    
NBP01-20#1       0.014      0.03       0          0          25         OUTLET    
NBP01-21#1       0.014      0.03       0          0          25         OUTLET    
NBP01-22#1       0.014      0.03       0          0          25         OUTLET    
NBP01-22#2       0.014      0.03       0          0          25         OUTLET    
NBP01-23#1       0.014      0.03       0          0          25         OUTLET    
NBP01-24#1       0.014      0.03       0          0          25         OUTLET    
NBP01-25#1       0.014      0.03       0          0          25         OUTLET    
NBP01-26#1       0.014      0.03       0          0          25         OUTLET    
NBP01-27#1       0.014      0.03       0          0          25         OUTLET    
NBP01-27#2       0.014      0.03       0          0          25         OUTLET    
NBP01-28#1       0.014      0.03       0          0          25         OUTLET    
NBP01-29#1       0.014      0.03       0          0          25         OUTLET    
NBP01-30#1       0.014      0.03       0          0          25         OUTLET    
NBP01-31#1       0.014      0.03       0          0          25         OUTLET    
NBP02-01#1       0.014      0.03       0          0          25         OUTLET    
NBP02-02#1       0.014      0.03       0          0          25         OUTLET    
NBP02-03#1       0.014      0.03       0          0          25         OUTLET    
NBP02-04#1       0.014      0.03       0          0          25         OUTLET    
NBP03-01#1       0.014      0.03       0          0          25         OUTLET    
NBP03-02#1       0.014      0.03       0          0          25         OUTLET    
NBP03-03#1       0.014      0.03       0          0          25         OUTLET    
NBP03-04#1       0.014      0.03       0          0          25         OUTLET    
NBP04-01#1       0.014      0.03       0          0          25         OUTLET    
NBP04-02#1       0.014      0.03       0          0          25         OUTLET    
NBP04-03#1       0.014      0.03       0          0          25         OUTLET    
NBP04-04#1       0.014      0.03       0          0          25         OUTLET    
NBP04-04#2       0.014      0.03       0          0          25         OUTLET    
NBP04-05#1       0.014      0.03       0          0          25         OUTLET    
NBP04-06#1       0.014      0.03       0          0          25         OUTLET    
NBP04-07#1       0.014      0.03       0          0          25         OUTLET    
NBP04-08#1       0.014      0.03       0          0          25         OUTLET    
NBP04-09#1       0.014      0.03       0          0          25         OUTLET    
NBP04-10#1       0.014      0.03       0          0          25         OUTLET    
NBP04-11#1       0.014      0.03       0          0          25         OUTLET    
NBP04-12#1       0.014      0.03       0          0          25         OUTLET    
NBP04-13#1       0.014      0.03       0          0          25         OUTLET    
NBP05-01#1       0.014      0.03       0          0          25         OUTLET    
NBP05-02#1       0.014      0.03       0          0          25         OUTLET    
NBP05-03#1       0.014      0.03       0          0          25         OUTLET    
NBP06-01#1       0.014      0.03       0          0          25         OUTLET    
NBP06-02#1       0.014      0.03       0          0          25         OUTLET    
NBP06-03#1       0.014      0.03       0          0          25         OUTLET    
NBP06-04#1       0.014      0.03       0          0          25         OUTLET    
NBP06-05#1       0.014      0.03       0          0          25         OUTLET    
NBP06-05#2       0.014      0.03       0          0          25         OUTLET    
NBP06-06#1       0.014      0.03       0          0          25         OUTLET    
NBP06-07#1       0.014      0.03       0          0          25         OUTLET    
NBP06-08#1       0.014      0.03       0          0          25         OUTLET    
NBP06-08#2       0.014      0.03       0          0          25         OUTLET    
NBP06-09#1       0.014      0.03       0          0          25         OUTLET    
NBP06-11#1       0.014      0.03       0          0          25         OUTLET    
NBP06-11#2       0.014      0.03       0          0          25         OUTLET    
NBP06-12#1       0.014      0.03       0          0          25         OUTLET    
NBP07-01#1       0.014      0.03       0          0          25         OUTLET    
NBP07-02#1       0.014      0.03       0          0          25         OUTLET    
NBP08-01#1       0.014      0.03       0          0          25         OUTLET    
NBP08-02#1       0.014      0.03       0          0          25         OUTLET    
NBP08-03#1       0.014      0.03       0          0          25         OUTLET    
NBP08-03#2       0.014      0.03       0          0          25         OUTLET    
NBP08-06#1       0.014      0.03       0          0          25         OUTLET    
NBP09-01#1       0.014      0.03       0          0          25         OUTLET    
NBP09-01#2       0.014      0.03       0          0          25         OUTLET    
NBP09-02#1       0.014      0.03       0          0          25         OUTLET    
NBP10-01#1       0.014      0.03       0          0          25         OUTLET    
NBP11-01#1       0.014      0.03       0          0          25         OUTLET    
NBP11-02#1       0.014      0.03       0          0          25         OUTLET    
NBP11-03#1       0.014      0.03       0          0          25         OUTLET    
NBP11-04#1       0.014      0.03       0          0          25         OUTLET    
NBP11-05#1       0.014      0.03       0          0          25         OUTLET    
NBP11-06#1       0.014      0.03       0          0          25         OUTLET    
NBP11-06#2       0.014      0.03       0          0          25         OUTLET    
NBP11-07#1       0.014      0.03       0          0          25         OUTLET    
NBP12-01#1       0.014      0.03       0          0          25         OUTLET    
NBP12-02#1       0.014      0.03       0          0          25         OUTLET    
NBP13-01#1       0.014      0.03       0          0          25         OUTLET    
NBP13-02#1       0.014      0.03       0          0          25         OUTLET    
NBP13-03#1       0.014      0.03       0          0          25         OUTLET    
NBP13-04#1       0.014      0.03       0          0          25         OUTLET    
NBP13-05#1       0.014      0.03       0          0          25         OUTLET    
NBP13-06#1       0.014      0.03       0          0          25         OUTLET    
NBP13-07#1       0.014      0.03       0          0          25         OUTLET    
NBP13-08#1       0.014      0.03       0          0          25         OUTLET    
NBP13-09#1       0.014      0.03       0          0          25         OUTLET    
NBP13-10#1       0.014      0.03       0          0          25         OUTLET    
NBP13-11#1       0.014      0.03       0          0          25         OUTLET    
NBP13-11#2       0.014      0.03       0          0          25         OUTLET    
NBP13-12#1       0.014      0.03       0          0          25         OUTLET    
NBP13-13#1       0.014      0.03       0          0          25         OUTLET    
NBP13-14#1       0.014      0.03       0          0          25         OUTLET    
NBP14-01#1       0.014      0.03       0          0          25         OUTLET    
NBP15-01#1       0.014      0.03       0          0          25         OUTLET    
NBPC-00#1        0.014      0.03       0          0          25         OUTLET    
NBPC-01#1        0.014      0.03       0          0          25         OUTLET    
NBPC-09#1        0.014      0.03       0          0          25         OUTLET    
NBPC-09#2        0.014      0.03       0          0          25         OUTLET    
NHM_016#1        0.014      0.03       0          0          25         OUTLET    
NNH01-00#1       0.014      0.03       0          0          25         OUTLET    
NNH01-01#1       0.014      0.03       0          0          25         OUTLET    
NNH01-02#1       0.014      0.03       0          0          25         OUTLET    
NNH01-02#2       0.014      0.03       0          0          25         OUTLET    
NNH01-03#1       0.014      0.03       0          0          25         OUTLET    
NNH01-04#1       0.014      0.03       0          0          25         OUTLET    
NNH01-05#1       0.014      0.03       0          0          25         OUTLET    
NNH01-06#1       0.014      0.03       0          0          25         OUTLET    
NNH01-07#1       0.014      0.03       0          0          25         OUTLET    
NNH01-07.1#1     0.014      0.03       0          0          25         OUTLET    
NNH01-09#1       0.014      0.03       0          0          25         OUTLET    
NNH01-09#2       0.014      0.03       0          0          25         OUTLET    
NNH01-10#1       0.014      0.03       0          0          25         OUTLET    
NNH01-10#2       0.014      0.03       0          0          25         OUTLET    
NNH01-11#1       0.014      0.03       0          0          25         OUTLET    
NNH01-12#1       0.014      0.03       0          0          25         OUTLET    
NNH01-12#2       0.014      0.03       0          0          25         OUTLET    
NNH01-13#1       0.014      0.03       0          0          25         OUTLET    
NNH01-14#1       0.014      0.03       0          0          25         OUTLET    
NNH01-15#1       0.014      0.03       0          0          25         OUTLET    
NNH01-16#1       0.014      0.03       0          0          25         OUTLET    
NNH01-16#2       0.014      0.03       0          0          25         OUTLET    
NNH01-17#1       0.014      0.03       0          0          25         OUTLET    
NNH01-18#1       0.014      0.03       0          0          25         OUTLET    
NNH01-18#2       0.014      0.03       0          0          25         OUTLET    
NNH01-19#1       0.014      0.03       0          0          25         OUTLET    
NNH01-19#2       0.014      0.03       0          0          25         OUTLET    
NNH01-20#1       0.014      0.03       0          0          25         OUTLET    
NNH01-20#2       0.014      0.03       0          0          25         OUTLET    
NNH01-21#1       0.014      0.03       0          0          25         OUTLET    
NNH01-21#2       0.014      0.03       0          0          25         OUTLET    
NNH01-22#1       0.014      0.03       0          0          25         OUTLET    
NNH01-22#2       0.014      0.03       0          0          25         OUTLET    
NNH01-23#1       0.014      0.03       0          0          25         OUTLET    
NNH01-24#1       0.014      0.03       0          0          25         OUTLET    
NNH01-25#1       0.014      0.03       0          0          25         OUTLET    
NNH01-26#1       0.014      0.03       0          0          25         OUTLET    
NNH01-27#1       0.014      0.03       0          0          25         OUTLET    
NNH01-28#1       0.014      0.03       0          0          25         OUTLET    
NNH01-29#1       0.014      0.03       0          0          25         OUTLET    
NNH02-01#1       0.014      0.03       0          0          25         OUTLET    
NNH02-01#2       0.014      0.03       0          0          25         OUTLET    
NNH02-01#3       0.014      0.03       0          0          25         OUTLET    
NNH02-02#1       0.014      0.03       0          0          25         OUTLET    
NNH03-01#1       0.014      0.03       0          0          25         OUTLET    
NNH03-02#1       0.014      0.03       0          0          25         OUTLET    
NNH03-03#1       0.014      0.03       0          0          25         OUTLET    
NNH04-01#1       0.014      0.03       0          0          25         OUTLET    
NNH04-02#1       0.014      0.03       0          0          25         OUTLET    
NNH04-03#1       0.014      0.03       0          0          25         OUTLET    
NNH04-04#1       0.014      0.03       0          0          25         OUTLET    
NNH05-01#1       0.014      0.03       0          0          25         OUTLET    
NNH05-02#1       0.014      0.03       0          0          25         OUTLET    
NNH05-03#1       0.014      0.03       0          0          25         OUTLET    
NNH06-01#1       0.014      0.03       0          0          25         OUTLET    
NNH07-01#1       0.014      0.03       0          0          25         OUTLET    
NNH07-01#2       0.014      0.03       0          0          25         OUTLET    
NNH07-02#1       0.014      0.03       0          0          25         OUTLET    
NNH07-03#1       0.014      0.03       0          0          25         OUTLET    
NNH07-03#2       0.014      0.03       0          0          25         OUTLET    
NNH07-04#1       0.014      0.03       0          0          25         OUTLET    
NNH07-05#1       0.014      0.03       0          0          25         OUTLET    
NNH07-06#1       0.014      0.03       0          0          25         OUTLET    
NNH07-07#1       0.014      0.03       0          0          25         OUTLET    
NNH07-08#1       0.014      0.03       0          0          25         OUTLET    
NNH07-09#1       0.014      0.03       0          0          25         OUTLET    
NNH07-09#2       0.014      0.03       0          0          25         OUTLET    
NNH07-10#1       0.014      0.03       0          0          25         OUTLET    
NNH07-11#1       0.014      0.03       0          0          25         OUTLET    
NNH07-12#1       0.014      0.03       0          0          25         OUTLET    
NNH07-13#1       0.014      0.03       0          0          25         OUTLET    
NNH07-14#1       0.014      0.03       0          0          25         OUTLET    
NNH08-01#1       0.014      0.03       0          0          25         OUTLET    
NNH08-02#1       0.014      0.03       0          0          25         OUTLET    
NNH08-03#1       0.014      0.03       0          0          25         OUTLET    
NNH09-01#1       0.014      0.03       0          0          25         OUTLET    
NNH10-01#1       0.014      0.03       0          0          25         OUTLET    
NNH10-01#2       0.014      0.03       0          0          25         OUTLET    
NNH10-02#1       0.014      0.03       0          0          25         OUTLET    
NNH10-03#1       0.014      0.03       0          0          25         OUTLET    
NNH10-04#1       0.014      0.03       0          0          25         OUTLET    
NNH11-01#1       0.014      0.03       0          0          25         OUTLET    
NNH11-02#1       0.014      0.03       0          0          25         OUTLET    
NNH11-03#1       0.014      0.03       0          0          25         OUTLET    
NNH11-04#1       0.014      0.03       0          0          25         OUTLET    
NNH12-01#1       0.014      0.03       0          0          25         OUTLET    
NNH12-02#1       0.014      0.03       0          0          25         OUTLET    
NNH13-01#1       0.014      0.03       0          0          25         OUTLET    
NNH14-01#1       0.014      0.03       0          0          25         OUTLET    
NNH14-02#1       0.014      0.03       0          0          25         OUTLET    
NNH15-01#1       0.014      0.03       0          0          25         OUTLET    
NNH15-02#1       0.014      0.03       0          0          25         OUTLET    
NNH15-03#1       0.014      0.03       0          0          25         OUTLET    
NNH15-04#1       0.014      0.03       0          0          25         OUTLET    
NNH15-05#1       0.014      0.03       0          0          25         OUTLET    
NNH15-05#2       0.014      0.03       0          0          25         OUTLET    
NNH15-06#1       0.014      0.03       0          0          25         OUTLET    
NNH15-07#1       0.014      0.03       0          0          25         OUTLET    
NNH16-01#1       0.014      0.03       0          0          25         OUTLET    
NNH17-01#1       0.014      0.03       0          0          25         OUTLET    
NNH17-02#1       0.014      0.03       0          0          25         OUTLET    
NNH18-01#1       0.014      0.03       0          0          25         OUTLET    
NNH18-02#1       0.014      0.03       0          0          25         OUTLET    
NNH18-03#1       0.014      0.03       0          0          25         OUTLET    
NNH18-04#1       0.014      0.03       0          0          25         OUTLET    
NNH18-05#1       0.014      0.03       0          0          25         OUTLET    
NNH18-06#1       0.014      0.03       0          0          25         OUTLET    
NNH18-07#1       0.014      0.03       0          0          25         OUTLET    
NSC01-01#1       0.014      0.03       0          0          25         OUTLET    
NSC01-02#1       0.014      0.03       0          0          25         OUTLET    
NSC01-03#1       0.014      0.03       0          0          25         OUTLET    
NSC01-04#1       0.014      0.03       0          0          25         OUTLET    
NSC01-05#1       0.014      0.03       0          0          25         OUTLET    
NSC01-06#1       0.014      0.03       0          0          25         OUTLET    
NSC01-06#2       0.014      0.03       0          0          25         OUTLET    
NSC01-06#3       0.014      0.03       0          0          25         OUTLET    
NSC01-07#1       0.014      0.03       0          0          25         OUTLET    
NSC01-07#2       0.014      0.03       0          0          25         OUTLET    
NSC01-08#1       0.014      0.03       0          0          25         OUTLET    
NSC01-09#1       0.014      0.03       0          0          25         OUTLET    
NSC01-10#1       0.014      0.03       0          0          25         OUTLET    
NSC01-11#1       0.014      0.03       0          0          25         OUTLET    
NSC01-12#1       0.014      0.03       0          0          25         OUTLET    
NSC01-13#1       0.014      0.03       0          0          25         OUTLET    
NSC01-14#1       0.014      0.03       0          0          25         OUTLET    
NSC01-15#1       0.014      0.03       0          0          25         OUTLET    
NSC01-16#1       0.014      0.03       0          0          25         OUTLET    
NSC01-17#1       0.014      0.03       0          0          25         OUTLET    
NSC01-18#1       0.014      0.03       0          0          25         OUTLET    
NSC01-19#1       0.014      0.03       0          0          25         OUTLET    
NSC01-20#1       0.014      0.03       0          0          25         OUTLET    
NSC01-21#1       0.014      0.03       0          0          25         OUTLET    
NSC01-22#1       0.014      0.03       0          0          25         OUTLET    
NSC02-01#1       0.014      0.03       0          0          25         OUTLET    
NSC02-02#1       0.014      0.03       0          0          25         OUTLET    
NSC02-03#1       0.014      0.03       0          0          25         OUTLET    
NSC02-03#2       0.014      0.03       0          0          25         OUTLET    
NSC02-03#3       0.014      0.03       0          0          25         OUTLET    
NSC02-04#1       0.014      0.03       0          0          25         OUTLET    
NSC03-01#1       0.014      0.03       0          0          25         OUTLET    
NSC04-01#1       0.014      0.03       0          0          25         OUTLET    
NSC05-01#1       0.014      0.03       0          0          25         OUTLET    
NSC05-02#1       0.014      0.03       0          0          25         OUTLET    
NSC05-03#1       0.014      0.03       0          0          25         OUTLET    
NSC05-04#1       0.014      0.03       0          0          25         OUTLET    
NSC05-05#1       0.014      0.03       0          0          25         OUTLET    
NSC05-06#1       0.014      0.03       0          0          25         OUTLET    
NSC05-07#1       0.014      0.03       0          0          25         OUTLET    
NSC05-08#1       0.014      0.03       0          0          25         OUTLET    
NSC06-01#1       0.014      0.03       0          0          25         OUTLET    
NSC06-01#2       0.014      0.03       0          0          25         OUTLET    
NSC06-02#1       0.014      0.03       0          0          25         OUTLET    
NSC06-03#1       0.014      0.03       0          0          25         OUTLET    
NSC06-04#1       0.014      0.03       0          0          25         OUTLET    
NSC06-04#2       0.014      0.03       0          0          25         OUTLET    
NSC06-05#1       0.014      0.03       0          0          25         OUTLET    
NSC07-01#1       0.014      0.03       0          0          25         OUTLET    
NSC07-02#1       0.014      0.03       0          0          25         OUTLET    
NSC07-02#2       0.014      0.03       0          0          25         OUTLET    
NSC07-03#1       0.014      0.03       0          0          25         OUTLET    
NSC07-04#1       0.014      0.03       0          0          25         OUTLET    
NSC08-01#1       0.014      0.03       0          0          25         OUTLET    
NSC08-02#1       0.014      0.03       0          0          25         OUTLET    
NSC08-03#1       0.014      0.03       0          0          25         OUTLET    
NSC09-01#1       0.014      0.03       0          0          25         OUTLET    
NSC09-02#1       0.014      0.03       0          0          25         OUTLET    
NSC10-00#1       0.014      0.03       0          0          25         OUTLET    
NSC10-01#1       0.014      0.03       0          0          25         OUTLET    
NSC10-02#1       0.014      0.03       0          0          25         OUTLET    
NSC10-03#1       0.014      0.03       0          0          25         OUTLET    
NSC10-04#1       0.014      0.03       0          0          25         OUTLET    
NSC10-04#2       0.014      0.03       0          0          25         OUTLET    
NSC10-05#1       0.014      0.03       0          0          25         OUTLET    
NSC10-06#1       0.014      0.03       0          0          25         OUTLET    
NSC10-06#2       0.014      0.03       0          0          25         OUTLET    
NSC10-07#1       0.014      0.03       0          0          25         OUTLET    
NSC10-08#1       0.014      0.03       0          0          25         OUTLET    
NSC10-08#2       0.014      0.03       0          0          25         OUTLET    
NSC10-09#1       0.014      0.03       0          0          25         OUTLET    
NSC10-10#1       0.014      0.03       0          0          25         OUTLET    
NSC10-11#1       0.014      0.03       0          0          25         OUTLET    
NSC10-12#1       0.014      0.03       0          0          25         OUTLET    
NSC10-13#1       0.014      0.03       0          0          25         OUTLET    
NSC10-14#1       0.014      0.03       0          0          25         OUTLET    
NSC10-15#1       0.014      0.03       0          0          25         OUTLET    
NSC10-16#1       0.014      0.03       0          0          25         OUTLET    
NSC10-17#1       0.014      0.03       0          0          25         OUTLET    
NSC11-01#1       0.014      0.03       0          0          25         OUTLET    
NSC11-02#1       0.014      0.03       0          0          25         OUTLET    
NSC11-03#1       0.014      0.03       0          0          25         OUTLET    
NSC11-04#1       0.014      0.03       0          0          25         OUTLET    
NSC11-05#1       0.014      0.03       0          0          25         OUTLET    
NSC12-01#1       0.014      0.03       0          0          25         OUTLET    
NSC12-01#2       0.014      0.03       0          0          25         OUTLET    
NSC12-02#1       0.014      0.03       0          0          25         OUTLET    
NSC12-03#1       0.014      0.03       0          0          25         OUTLET    
NSC12-04#1       0.014      0.03       0          0          25         OUTLET    
NSC12-05#1       0.014      0.03       0          0          25         OUTLET    
NSC13-01#1       0.014      0.03       0          0          25         OUTLET    
NSC13-02#1       0.014      0.03       0          0          25         OUTLET    
NSC13-03#1       0.014      0.03       0          0          25         OUTLET    
NSC14-01#1       0.014      0.03       0          0          25         OUTLET    
NSC15-01#1       0.014      0.03       0          0          25         OUTLET    
NSC15-02#1       0.014      0.03       0          0          25         OUTLET    
NSC15-03#1       0.014      0.03       0          0          25         OUTLET    
NSC15-04#1       0.014      0.03       0          0          25         OUTLET    
NSC15-05#1       0.014      0.03       0          0          25         OUTLET    
NSC15-06#1       0.014      0.03       0          0          25         OUTLET    
NSC15-06#2       0.014      0.03       0          0          25         OUTLET    
NSC15-07#1       0.014      0.03       0          0          25         OUTLET    
NSC15-07#2       0.014      0.03       0          0          25         OUTLET    
NSC15-08#1       0.014      0.03       0          0          25         OUTLET    
NSC15-08#2       0.014      0.03       0          0          25         OUTLET    
NSC16-01#1       0.014      0.03       0          0          25         OUTLET    
NSC16-02#1       0.014      0.03       0          0          25         OUTLET    
NSC16-03#1       0.014      0.03       0          0          25         OUTLET    
NSC16-03#2       0.014      0.03       0          0          25         OUTLET    
NSC16-04#1       0.014      0.03       0          0          25         OUTLET    
NSC16-05#1       0.014      0.03       0          0          25         OUTLET    
NSC17-01#1       0.014      0.03       0          0          25         OUTLET    
NSC18-01#1       0.014      0.03       0          0          25         OUTLET    
NSC18-02#1       0.014      0.03       0          0          25         OUTLET    
NSC18-03#1       0.014      0.03       0          0          25         OUTLET    
NSC19-01#1       0.014      0.03       0          0          25         OUTLET    
NSC19-02#1       0.014      0.03       0          0          25         OUTLET    
NSC19-03#1       0.014      0.03       0          0          25         OUTLET    
NSC19-04#1       0.014      0.03       0          0          25         OUTLET    
NSC19-05#1       0.014      0.03       0          0          25         OUTLET    
NSC19-06#1       0.014      0.03       0          0          25         OUTLET    
NSC19-07#1       0.014      0.03       0          0          25         OUTLET    
NSC19-08#1       0.014      0.03       0          0          25         OUTLET    
NSC19-09#1       0.014      0.03       0          0          25         OUTLET    
NSC19-09#2       0.014      0.03       0          0          25         OUTLET    
NSC19-10#1       0.014      0.03       0          0          25         OUTLET    
NSC19-11#1       0.014      0.03       0          0          25         OUTLET    
NSC19-12#1       0.014      0.03       0          0          25         OUTLET    
NSC20-01#1       0.014      0.03       0          0          25         OUTLET    
NSC20-02#1       0.014      0.03       0          0          25         OUTLET    
NSC20-03#1       0.014      0.03       0          0          25         OUTLET    
NSC20-04#1       0.014      0.03       0          0          25         OUTLET    
NSC20-04#2       0.014      0.03       0          0          25         OUTLET    
NSC20-05#1       0.014      0.03       0          0          25         OUTLET    
NSC20-06#1       0.014      0.03       0          0          25         OUTLET    
NSC20-07#1       0.014      0.03       0          0          25         OUTLET    
NSC20-08#1       0.014      0.03       0          0          25         OUTLET    
NSC20-09#1       0.014      0.03       0          0          25         OUTLET    
NSC20-09#2       0.014      0.03       0          0          25         OUTLET    
NSC20-10#1       0.014      0.03       0          0          25         OUTLET    
NSC21-01#1       0.014      0.03       0          0          25         OUTLET    
NSC21-01#2       0.014      0.03       0          0          25         OUTLET    
NSC21-02#1       0.014      0.03       0          0          25         OUTLET    
NSC21-03#1       0.014      0.03       0          0          25         OUTLET    
NSC21-04#1       0.014      0.03       0          0          25         OUTLET    
NSC21-05#1       0.014      0.03       0          0          25         OUTLET    
NSC21-06#1       0.014      0.03       0          0          25         OUTLET    
NSC22-01#1       0.014      0.03       0          0          25         OUTLET    
NSC23-01#1       0.014      0.03       0          0          25         OUTLET    
NSC23-02#1       0.014      0.03       0          0          25         OUTLET    
NSC23-03#1       0.014      0.03       0          0          25         OUTLET    
NSC23-04#1       0.014      0.03       0          0          25         OUTLET    
NSR01-00#1       0.014      0.03       0          0          25         OUTLET    
NSR01-01#1       0.014      0.03       0          0          25         OUTLET    
NSR01-01#2       0.014      0.03       0          0          25         OUTLET    
NSR01-02#1       0.014      0.03       0          0          25         OUTLET    
NSR01-03#1       0.014      0.03       0          0          25         OUTLET    
NSR01-05#1       0.014      0.03       0          0          25         OUTLET    
NSR01-05#2       0.014      0.03       0          0          25         OUTLET    
NSR01-06#1       0.014      0.03       0          0          25         OUTLET    
NSR01-07#1       0.014      0.03       0          0          25         OUTLET    
NSR01-08#1       0.014      0.03       0          0          25         OUTLET    
NSR01-09#1       0.014      0.03       0          0          25         OUTLET    
NSR01-10#1       0.014      0.03       0          0          25         OUTLET    
NSR01-11#1       0.014      0.03       0          0          25         OUTLET    
NSR02-02#1       0.014      0.03       0          0          25         OUTLET    
NSR02-02#2       0.014      0.03       0          0          25         OUTLET    
NSR02-02#3       0.014      0.03       0          0          25         OUTLET    
NSR02-03#1       0.014      0.03       0          0          25         OUTLET    
NSR02-03#2       0.014      0.03       0          0          25         OUTLET    
NSR02-04#1       0.014      0.03       0          0          25         OUTLET    
NSR02-05#1       0.014      0.03       0          0          25         OUTLET    
NYS01-02#1       0.014      0.03       0          0          25         OUTLET    
NYS01-02#2       0.014      0.03       0          0          25         OUTLET    
NYS01-03#1       0.014      0.03       0          0          25         OUTLET    
NYS01-04#1       0.014      0.03       0          0          25         OUTLET    
NYS01-04#2       0.014      0.03       0          0          25         OUTLET    
NYS01-05#1       0.014      0.03       0          0          25         OUTLET    
NYS01-06#1       0.014      0.03       0          0          25         OUTLET    
NYS01-06#2       0.014      0.03       0          0          25         OUTLET    
NYS01-07#1       0.014      0.03       0          0          25         OUTLET    
NYS01-08#1       0.014      0.03       0          0          25         OUTLET    
NYS01-08#2       0.014      0.03       0          0          25         OUTLET    
NYS01-08#3       0.014      0.03       0          0          25         OUTLET    
NYS01-08#4       0.014      0.03       0          0          25         OUTLET    
NYS01-09#1       0.014      0.03       0          0          25         OUTLET    
NYS01-10#1       0.014      0.03       0          0          25         OUTLET    
NYS01-11#1       0.014      0.03       0          0          25         OUTLET    
NYS01-12#1       0.014      0.03       0          0          25         OUTLET    
NYS01-12#2       0.014      0.03       0          0          25         OUTLET    
NYS01-13#1       0.014      0.03       0          0          25         OUTLET    
NYS01-13#2       0.014      0.03       0          0          25         OUTLET    
NYS01-14#1       0.014      0.03       0          0          25         OUTLET    
NYS01-15#1       0.014      0.03       0          0          25         OUTLET    
NYS01-16#1       0.014      0.03       0          0          25         OUTLET    
NYS01-17#1       0.014      0.03       0          0          25         OUTLET    
NYS01-17#2       0.014      0.03       0          0          25         OUTLET    
NYS01-18#1       0.014      0.03       0          0          25         OUTLET    
NYS01-18#2       0.014      0.03       0          0          25         OUTLET    
NYS01-19#1       0.014      0.03       0          0          25         OUTLET    
NYS02-00#1       0.014      0.03       0          0          25         OUTLET    
NYS02-01#1       0.014      0.03       0          0          25         OUTLET    
NYS02-01#2       0.014      0.03       0          0          25         OUTLET    
NYS02-02#1       0.014      0.03       0          0          25         OUTLET    
NYS02-03#1       0.014      0.03       0          0          25         OUTLET    
NYS02-04#1       0.014      0.03       0          0          25         OUTLET    
NYS02-05#1       0.014      0.03       0          0          25         OUTLET    
NYS02-06#1       0.014      0.03       0          0          25         OUTLET    
NYS03-01#1       0.014      0.03       0          0          25         OUTLET    
NYS05-00#1       0.014      0.03       0          0          25         OUTLET    
NYS05-00#2       0.014      0.03       0          0          25         OUTLET    
NYS05-00#3       0.014      0.03       0          0          25         OUTLET    
NYS05-02#1       0.014      0.03       0          0          25         OUTLET    
NYS05-02#2       0.014      0.03       0          0          25         OUTLET    
NYS05-03#1       0.014      0.03       0          0          25         OUTLET    
NYS05-04#1       0.014      0.03       0          0          25         OUTLET    
NYS05-05#1       0.014      0.03       0          0          25         OUTLET    
NYS05-06#1       0.014      0.03       0          0          25         OUTLET    
NYS05-07#1       0.014      0.03       0          0          25         OUTLET    
NYS05-08#1       0.014      0.03       0          0          25         OUTLET    
NYS05-09#1       0.014      0.03       0          0          25         OUTLET    
NYS05-10#1       0.014      0.03       0          0          25         OUTLET    
NYS05-11#1       0.014      0.03       0          0          25         OUTLET    
NYS06-01#1       0.014      0.03       0          0          25         OUTLET    
NYS07-01#1       0.014      0.03       0          0          25         OUTLET    
NYS07-02#1       0.014      0.03       0          0          25         OUTLET    
NYS08-02#1       0.014      0.03       0          0          25         OUTLET    
NYS08-02#2       0.014      0.03       0          0          25         OUTLET    
NYS08-03#1       0.014      0.03       0          0          25         OUTLET    
NYS08-04#1       0.014      0.03       0          0          25         OUTLET    
NYS08-05#1       0.014      0.03       0          0          25         OUTLET    
NYS08-06#1       0.014      0.03       0          0          25         OUTLET    
NYS08-07#1       0.014      0.03       0          0          25         OUTLET    
NYS08-08#1       0.014      0.03       0          0          25         OUTLET    
NYS08-09#1       0.014      0.03       0          0          25         OUTLET    
NYS08-10#1       0.014      0.03       0          0          25         OUTLET    
NYS08-10#2       0.014      0.03       0          0          25         OUTLET    
NYS08-10#3       0.014      0.03       0          0          25         OUTLET    
NYS08-11#1       0.014      0.03       0          0          25         OUTLET    
NYS08-12#1       0.014      0.03       0          0          25         OUTLET    
NYS09-01#1       0.014      0.03       0          0          25         OUTLET    
NYS09-02#1       0.014      0.03       0          0          25         OUTLET    
NYS10-01#1       0.014      0.03       0          0          25         OUTLET    
NYS10-02#1       0.014      0.03       0          0          25         OUTLET    
NYS11-01#1       0.014      0.03       0          0          25         OUTLET    
NYS11-02#1       0.014      0.03       0          0          25         OUTLET    
NYS11-03#1       0.014      0.03       0          0          25         OUTLET    
NYS11-04#1       0.014      0.03       0          0          25         OUTLET    
NYS12-01#1       0.014      0.03       0          0          25         OUTLET    
NYS12-02#1       0.014      0.03       0          0          25         OUTLET    
NYS12-03#1       0.014      0.03       0          0          25         OUTLET    
NYS12-04#1       0.014      0.03       0          0          25         OUTLET    
NYS12-05#1       0.014      0.03       0          0          25         OUTLET    
NYS12-06#1       0.014      0.03       0          0          25         OUTLET    
NYS13-01#1       0.014      0.03       0          0          25         OUTLET    
NYS13-01#2       0.014      0.03       0          0          25         OUTLET    
NYS13-02#1       0.014      0.03       0          0          25         OUTLET    
NYS13-03#1       0.014      0.03       0          0          25         OUTLET    
NYS13-04#1       0.014      0.03       0          0          25         OUTLET    
NYS13-05#1       0.014      0.03       0          0          25         OUTLET    
NYS13-06#1       0.014      0.03       0          0          25         OUTLET    
NYS13-07#1       0.014      0.03       0          0          25         OUTLET    
NYS13-08#1       0.014      0.03       0          0          25         OUTLET    
NYS14-01#1       0.014      0.03       0          0          25         OUTLET    
NYS14-02#1       0.014      0.03       0          0          25         OUTLET    
NYS14-03#1       0.014      0.03       0          0          25         OUTLET    
NYS15-01#1       0.014      0.03       0          0          25         OUTLET    
NYS15-02#1       0.014      0.03       0          0          25         OUTLET    
NYS15-03#1       0.014      0.03       0          0          25         OUTLET    
NYS15-03#2       0.014      0.03       0          0          25         OUTLET    
NYS16-01#1       0.014      0.03       0          0          25         OUTLET    
NYS16-02#1       0.014      0.03       0          0          25         OUTLET    
NYS16-03#1       0.014      0.03       0          0          25         OUTLET    
NYS16-04#1       0.014      0.03       0          0          25         OUTLET    
NYS17-01#1       0.014      0.03       0          0          25         OUTLET    
NYS18-01#1       0.014      0.03       0          0          25         OUTLET    
NYS18-02#1       0.014      0.03       0          0          25         OUTLET    
SDCM_006#1       0.014      0.03       0          0          25         OUTLET    
SDCM_010#1       0.014      0.03       0          0          25         OUTLET    
SDCM_016_1#1     0.014      0.03       0          0          25         OUTLET    
SDCM_020#1       0.014      0.03       0          0          25         OUTLET    
SDCM_026#1       0.014      0.03       0          0          25         OUTLET    
SDCM_032#1       0.014      0.03       0          0          25         OUTLET    
SDCM_039#1       0.014      0.03       0          0          25         OUTLET    

[INFILTRATION]
;;Subcatchment   Param1     Param2     Param3     Param4     Param5    
;;-------------- ---------- ---------- ---------- ---------- ----------
NBC01-00#1       150        10         0.18       7          0         
NBC01-01#1       150        10         0.18       7          0         
NBC01-02#1       150        10         0.18       7          0         
NBC01-02#2       150        10         0.18       7          0         
NBC01-04#1       150        10         0.18       7          0         
NBC01-04#2       150        10         0.18       7          0         
NBC01-04#3       150        10         0.18       7          0         
NBC01-05#1       150        10         0.18       7          0         
NBC01-06#1       150        10         0.18       7          0         
NBC01-07#1       150        10         0.18       7          0         
NBC01-08#1       150        10         0.18       7          0         
NBC01-09#1       150        10         0.18       7          0         
NBC01-10#1       150        10         0.18       7          0         
NBC01-11#1       150        10         0.18       7          0         
NBC01-12#1       150        10         0.18       7          0         
NBC01-13#1       150        10         0.18       7          0         
NBC01-13#2       150        10         0.18       7          0         
NBC01-14#1       150        10         0.18       7          0         
NBC01-15#1       150        10         0.18       7          0         
NBC01-16#1       150        10         0.18       7          0         
NBC01-17#1       150        10         0.18       7          0         
NBC01-19#1       150        10         0.18       7          0         
NBC01-20#1       150        10         0.18       7          0         
NBC02-01#1       150        10         0.18       7          0         
NBC03-01#1       150        10         0.18       7          0         
NBC03-02#1       150        10         0.18       7          0         
NBC03-03#1       150        10         0.18       7          0         
NBC03-04#1       150        10         0.18       7          0         
NBC03-05#1       150        10         0.18       7          0         
NBC04-01#1       150        10         0.18       7          0         
NBC04-02#1       150        10         0.18       7          0         
NBC09-00#1       150        10         0.18       7          0         
NBC10-00#1       150        10         0.18       7          0         
NBC11-02#1       150        10         0.18       7          0         
NBC11-02#2       150        10         0.18       7          0         
NBC11-02#3       150        10         0.18       7          0         
NBC11-03#1       150        10         0.18       7          0         
NBC12-00#1       150        10         0.18       7          0         
NBC13-01#1       150        10         0.18       7          0         
NBC13-01#2       150        10         0.18       7          0         
NBC13-02#1       150        10         0.18       7          0         
NBC13-03#1       150        10         0.18       7          0         
NBC13-04#1       150        10         0.18       7          0         
NBC13-05#1       150        10         0.18       7          0         
NBC14-01#1       150        10         0.18       7          0         
NBC14-01#2       150        10         0.18       7          0         
NBC14-02#1       150        10         0.18       7          0         
NBC14-02#2       150        10         0.18       7          0         
NBC14-03#1       150        10         0.18       7          0         
NBC14-04#1       150        10         0.18       7          0         
NBC14-05#1       150        10         0.18       7          0         
NBC15-01#1       150        10         0.18       7          0         
NBC15-02#1       150        10         0.18       7          0         
NBC16-00#1       150        10         0.18       7          0         
NBC16-00#2       150        10         0.18       7          0         
NBC16-02#1       150        10         0.18       7          0         
NBC16-02#2       150        10         0.18       7          0         
NBC16-03#1       150        10         0.18       7          0         
NBC16-03#2       150        10         0.18       7          0         
NBC16-04#1       150        10         0.18       7          0         
NBC16-05#1       150        10         0.18       7          0         
NBC16-06#1       150        10         0.18       7          0         
NBC16-07#1       150        10         0.18       7          0         
NBC17-01#1       150        10         0.18       7          0         
NBC18-01#1       150        10         0.18       7          0         
NBP01-01#1       150        10         0.18       7          0         
NBP01-01#2       150        10         0.18       7          0         
NBP01-03#1       150        10         0.18       7          0         
NBP01-03#2       150        10         0.18       7          0         
NBP01-04#1       150        10         0.18       7          0         
NBP01-04#2       150        10         0.18       7          0         
NBP01-05#1       150        10         0.18       7          0         
NBP01-05#2       150        10         0.18       7          0         
NBP01-06#1       150        10         0.18       7          0         
NBP01-06#2       150        10         0.18       7          0         
NBP01-07#1       150        10         0.18       7          0         
NBP01-08#1       150        10         0.18       7          0         
NBP01-08#2       150        10         0.18       7          0         
NBP01-09#1       150        10         0.18       7          0         
NBP01-09#2       150        10         0.18       7          0         
NBP01-10#1       150        10         0.18       7          0         
NBP01-11#1       150        10         0.18       7          0         
NBP01-12#1       150        10         0.18       7          0         
NBP01-13#1       150        10         0.18       7          0         
NBP01-13#2       150        10         0.18       7          0         
NBP01-14#1       150        10         0.18       7          0         
NBP01-15#1       150        10         0.18       7          0         
NBP01-16#1       150        10         0.18       7          0         
NBP01-17#1       150        10         0.18       7          0         
NBP01-18#1       150        10         0.18       7          0         
NBP01-19#1       150        10         0.18       7          0         
NBP01-20#1       150        10         0.18       7          0         
NBP01-21#1       150        10         0.18       7          0         
NBP01-22#1       150        10         0.18       7          0         
NBP01-22#2       150        10         0.18       7          0         
NBP01-23#1       150        10         0.18       7          0         
NBP01-24#1       150        10         0.18       7          0         
NBP01-25#1       150        10         0.18       7          0         
NBP01-26#1       150        10         0.18       7          0         
NBP01-27#1       150        10         0.18       7          0         
NBP01-27#2       150        10         0.18       7          0         
NBP01-28#1       150        10         0.18       7          0         
NBP01-29#1       150        10         0.18       7          0         
NBP01-30#1       150        10         0.18       7          0         
NBP01-31#1       150        10         0.18       7          0         
NBP02-01#1       150        10         0.18       7          0         
NBP02-02#1       150        10         0.18       7          0         
NBP02-03#1       150        10         0.18       7          0         
NBP02-04#1       150        10         0.18       7          0         
NBP03-01#1       150        10         0.18       7          0         
NBP03-02#1       150        10         0.18       7          0         
NBP03-03#1       150        10         0.18       7          0         
NBP03-04#1       150        10         0.18       7          0         
NBP04-01#1       150        10         0.18       7          0         
NBP04-02#1       150        10         0.18       7          0         
NBP04-03#1       150        10         0.18       7          0         
NBP04-04#1       150        10         0.18       7          0         
NBP04-04#2       150        10         0.18       7          0         
NBP04-05#1       150        10         0.18       7          0         
NBP04-06#1       150        10         0.18       7          0         
NBP04-07#1       150        10         0.18       7          0         
NBP04-08#1       150        10         0.18       7          0         
NBP04-09#1       150        10         0.18       7          0         
NBP04-10#1       150        10         0.18       7          0         
NBP04-11#1       150        10         0.18       7          0         
NBP04-12#1       150        10         0.18       7          0         
NBP04-13#1       150        10         0.18       7          0         
NBP05-01#1       150        10         0.18       7          0         
NBP05-02#1       150        10         0.18       7          0         
NBP05-03#1       150        10         0.18       7          0         
NBP06-01#1       150        10         0.18       7          0         
NBP06-02#1       150        10         0.18       7          0         
NBP06-03#1       150        10         0.18       7          0         
NBP06-04#1       150        10         0.18       7          0         
NBP06-05#1       150        10         0.18       7          0         
NBP06-05#2       150        10         0.18       7          0         
NBP06-06#1       150        10         0.18       7          0         
NBP06-07#1       150        10         0.18       7          0         
NBP06-08#1       150        10         0.18       7          0         
NBP06-08#2       150        10         0.18       7          0         
NBP06-09#1       150        10         0.18       7          0         
NBP06-11#1       150        10         0.18       7          0         
NBP06-11#2       150        10         0.18       7          0         
NBP06-12#1       150        10         0.18       7          0         
NBP07-01#1       150        10         0.18       7          0         
NBP07-02#1       150        10         0.18       7          0         
NBP08-01#1       150        10         0.18       7          0         
NBP08-02#1       150        10         0.18       7          0         
NBP08-03#1       150        10         0.18       7          0         
NBP08-03#2       150        10         0.18       7          0         
NBP08-06#1       150        10         0.18       7          0         
NBP09-01#1       150        10         0.18       7          0         
NBP09-01#2       150        10         0.18       7          0         
NBP09-02#1       150        10         0.18       7          0         
NBP10-01#1       150        10         0.18       7          0         
NBP11-01#1       150        10         0.18       7          0         
NBP11-02#1       150        10         0.18       7          0         
NBP11-03#1       150        10         0.18       7          0         
NBP11-04#1       150        10         0.18       7          0         
NBP11-05#1       150        10         0.18       7          0         
NBP11-06#1       150        10         0.18       7          0         
NBP11-06#2       150        10         0.18       7          0         
NBP11-07#1       150        10         0.18       7          0         
NBP12-01#1       150        10         0.18       7          0         
NBP12-02#1       150        10         0.18       7          0         
NBP13-01#1       150        10         0.18       7          0         
NBP13-02#1       150        10         0.18       7          0         
NBP13-03#1       150        10         0.18       7          0         
NBP13-04#1       150        10         0.18       7          0         
NBP13-05#1       150        10         0.18       7          0         
NBP13-06#1       150        10         0.18       7          0         
NBP13-07#1       150        10         0.18       7          0         
NBP13-08#1       150        10         0.18       7          0         
NBP13-09#1       150        10         0.18       7          0         
NBP13-10#1       150        10         0.18       7          0         
NBP13-11#1       150        10         0.18       7          0         
NBP13-11#2       150        10         0.18       7          0         
NBP13-12#1       150        10         0.18       7          0         
NBP13-13#1       150        10         0.18       7          0         
NBP13-14#1       150        10         0.18       7          0         
NBP14-01#1       150        10         0.18       7          0         
NBP15-01#1       150        10         0.18       7          0         
NBPC-00#1        150        10         0.18       7          0         
NBPC-01#1        150        10         0.18       7          0         
NBPC-09#1        150        10         0.18       7          0         
NBPC-09#2        150        10         0.18       7          0         
NHM_016#1        150        10         0.18       7          0         
NNH01-00#1       150        10         0.18       7          0         
NNH01-01#1       150        10         0.18       7          0         
NNH01-02#1       150        10         0.18       7          0         
NNH01-02#2       150        10         0.18       7          0         
NNH01-03#1       150        10         0.18       7          0         
NNH01-04#1       150        10         0.18       7          0         
NNH01-05#1       150        10         0.18       7          0         
NNH01-06#1       150        10         0.18       7          0         
NNH01-07#1       150        10         0.18       7          0         
NNH01-07.1#1     150        10         0.18       7          0         
NNH01-09#1       150        10         0.18       7          0         
NNH01-09#2       150        10         0.18       7          0         
NNH01-10#1       150        10         0.18       7          0         
NNH01-10#2       150        10         0.18       7          0         
NNH01-11#1       150        10         0.18       7          0         
NNH01-12#1       150        10         0.18       7          0         
NNH01-12#2       150        10         0.18       7          0         
NNH01-13#1       150        10         0.18       7          0         
NNH01-14#1       150        10         0.18       7          0         
NNH01-15#1       150        10         0.18       7          0         
NNH01-16#1       150        10         0.18       7          0         
NNH01-16#2       150        10         0.18       7          0         
NNH01-17#1       150        10         0.18       7          0         
NNH01-18#1       150        10         0.18       7          0         
NNH01-18#2       150        10         0.18       7          0         
NNH01-19#1       150        10         0.18       7          0         
NNH01-19#2       150        10         0.18       7          0         
NNH01-20#1       150        10         0.18       7          0         
NNH01-20#2       150        10         0.18       7          0         
NNH01-21#1       150        10         0.18       7          0         
NNH01-21#2       150        10         0.18       7          0         
NNH01-22#1       150        10         0.18       7          0         
NNH01-22#2       150        10         0.18       7          0         
NNH01-23#1       150        10         0.18       7          0         
NNH01-24#1       150        10         0.18       7          0         
NNH01-25#1       150        10         0.18       7          0         
NNH01-26#1       150        10         0.18       7          0         
NNH01-27#1       150        10         0.18       7          0         
NNH01-28#1       150        10         0.18       7          0         
NNH01-29#1       150        10         0.18       7          0         
NNH02-01#1       150        10         0.18       7          0         
NNH02-01#2       150        10         0.18       7          0         
NNH02-01#3       150        10         0.18       7          0         
NNH02-02#1       150        10         0.18       7          0         
NNH03-01#1       150        10         0.18       7          0         
NNH03-02#1       150        10         0.18       7          0         
NNH03-03#1       150        10         0.18       7          0         
NNH04-01#1       150        10         0.18       7          0         
NNH04-02#1       150        10         0.18       7          0         
NNH04-03#1       150        10         0.18       7          0         
NNH04-04#1       150        10         0.18       7          0         
NNH05-01#1       150        10         0.18       7          0         
NNH05-02#1       150        10         0.18       7          0         
NNH05-03#1       150        10         0.18       7          0         
NNH06-01#1       150        10         0.18       7          0         
NNH07-01#1       150        10         0.18       7          0         
NNH07-01#2       150        10         0.18       7          0         
NNH07-02#1       150        10         0.18       7          0         
NNH07-03#1       150        10         0.18       7          0         
NNH07-03#2       150        10         0.18       7          0         
NNH07-04#1       150        10         0.18       7          0         
NNH07-05#1       150        10         0.18       7          0         
NNH07-06#1       150        10         0.18       7          0         
NNH07-07#1       150        10         0.18       7          0         
NNH07-08#1       150        10         0.18       7          0         
NNH07-09#1       150        10         0.18       7          0         
NNH07-09#2       150        10         0.18       7          0         
NNH07-10#1       150        10         0.18       7          0         
NNH07-11#1       150        10         0.18       7          0         
NNH07-12#1       150        10         0.18       7          0         
NNH07-13#1       150        10         0.18       7          0         
NNH07-14#1       150        10         0.18       7          0         
NNH08-01#1       150        10         0.18       7          0         
NNH08-02#1       150        10         0.18       7          0         
NNH08-03#1       150        10         0.18       7          0         
NNH09-01#1       150        10         0.18       7          0         
NNH10-01#1       150        10         0.18       7          0         
NNH10-01#2       150        10         0.18       7          0         
NNH10-02#1       150        10         0.18       7          0         
NNH10-03#1       150        10         0.18       7          0         
NNH10-04#1       150        10         0.18       7          0         
NNH11-01#1       150        10         0.18       7          0         
NNH11-02#1       150        10         0.18       7          0         
NNH11-03#1       150        10         0.18       7          0         
NNH11-04#1       150        10         0.18       7          0         
NNH12-01#1       150        10         0.18       7          0         
NNH12-02#1       150        10         0.18       7          0         
NNH13-01#1       150        10         0.18       7          0         
NNH14-01#1       150        10         0.18       7          0         
NNH14-02#1       150        10         0.18       7          0         
NNH15-01#1       150        10         0.18       7          0         
NNH15-02#1       150        10         0.18       7          0         
NNH15-03#1       150        10         0.18       7          0         
NNH15-04#1       150        10         0.18       7          0         
NNH15-05#1       150        10         0.18       7          0         
NNH15-05#2       150        10         0.18       7          0         
NNH15-06#1       150        10         0.18       7          0         
NNH15-07#1       150        10         0.18       7          0         
NNH16-01#1       150        10         0.18       7          0         
NNH17-01#1       150        10         0.18       7          0         
NNH17-02#1       150        10         0.18       7          0         
NNH18-01#1       150        10         0.18       7          0         
NNH18-02#1       150        10         0.18       7          0         
NNH18-03#1       150        10         0.18       7          0         
NNH18-04#1       150        10         0.18       7          0         
NNH18-05#1       150        10         0.18       7          0         
NNH18-06#1       150        10         0.18       7          0         
NNH18-07#1       150        10         0.18       7          0         
NSC01-01#1       150        10         0.18       7          0         
NSC01-02#1       150        10         0.18       7          0         
NSC01-03#1       150        10         0.18       7          0         
NSC01-04#1       150        10         0.18       7          0         
NSC01-05#1       150        10         0.18       7          0         
NSC01-06#1       150        10         0.18       7          0         
NSC01-06#2       150        10         0.18       7          0         
NSC01-06#3       150        10         0.18       7          0         
NSC01-07#1       150        10         0.18       7          0         
NSC01-07#2       150        10         0.18       7          0         
NSC01-08#1       150        10         0.18       7          0         
NSC01-09#1       150        10         0.18       7          0         
NSC01-10#1       150        10         0.18       7          0         
NSC01-11#1       150        10         0.18       7          0         
NSC01-12#1       150        10         0.18       7          0         
NSC01-13#1       150        10         0.18       7          0         
NSC01-14#1       150        10         0.18       7          0         
NSC01-15#1       150        10         0.18       7          0         
NSC01-16#1       150        10         0.18       7          0         
NSC01-17#1       150        10         0.18       7          0         
NSC01-18#1       150        10         0.18       7          0         
NSC01-19#1       150        10         0.18       7          0         
NSC01-20#1       150        10         0.18       7          0         
NSC01-21#1       150        10         0.18       7          0         
NSC01-22#1       150        10         0.18       7          0         
NSC02-01#1       150        10         0.18       7          0         
NSC02-02#1       150        10         0.18       7          0         
NSC02-03#1       150        10         0.18       7          0         
NSC02-03#2       150        10         0.18       7          0         
NSC02-03#3       150        10         0.18       7          0         
NSC02-04#1       150        10         0.18       7          0         
NSC03-01#1       150        10         0.18       7          0         
NSC04-01#1       150        10         0.18       7          0         
NSC05-01#1       150        10         0.18       7          0         
NSC05-02#1       150        10         0.18       7          0         
NSC05-03#1       150        10         0.18       7          0         
NSC05-04#1       150        10         0.18       7          0         
NSC05-05#1       150        10         0.18       7          0         
NSC05-06#1       150        10         0.18       7          0         
NSC05-07#1       150        10         0.18       7          0         
NSC05-08#1       150        10         0.18       7          0         
NSC06-01#1       150        10         0.18       7          0         
NSC06-01#2       150        10         0.18       7          0         
NSC06-02#1       150        10         0.18       7          0         
NSC06-03#1       150        10         0.18       7          0         
NSC06-04#1       150        10         0.18       7          0         
NSC06-04#2       150        10         0.18       7          0         
NSC06-05#1       150        10         0.18       7          0         
NSC07-01#1       150        10         0.18       7          0         
NSC07-02#1       150        10         0.18       7          0         
NSC07-02#2       150        10         0.18       7          0         
NSC07-03#1       150        10         0.18       7          0         
NSC07-04#1       150        10         0.18       7          0         
NSC08-01#1       150        10         0.18       7          0         
NSC08-02#1       150        10         0.18       7          0         
NSC08-03#1       150        10         0.18       7          0         
NSC09-01#1       150        10         0.18       7          0         
NSC09-02#1       150        10         0.18       7          0         
NSC10-00#1       150        10         0.18       7          0         
NSC10-01#1       150        10         0.18       7          0         
NSC10-02#1       150        10         0.18       7          0         
NSC10-03#1       150        10         0.18       7          0         
NSC10-04#1       150        10         0.18       7          0         
NSC10-04#2       150        10         0.18       7          0         
NSC10-05#1       150        10         0.18       7          0         
NSC10-06#1       150        10         0.18       7          0         
NSC10-06#2       150        10         0.18       7          0         
NSC10-07#1       150        10         0.18       7          0         
NSC10-08#1       150        10         0.18       7          0         
NSC10-08#2       150        10         0.18       7          0         
NSC10-09#1       150        10         0.18       7          0         
NSC10-10#1       150        10         0.18       7          0         
NSC10-11#1       150        10         0.18       7          0         
NSC10-12#1       150        10         0.18       7          0         
NSC10-13#1       150        10         0.18       7          0         
NSC10-14#1       150        10         0.18       7          0         
NSC10-15#1       150        10         0.18       7          0         
NSC10-16#1       150        10         0.18       7          0         
NSC10-17#1       150        10         0.18       7          0         
NSC11-01#1       150        10         0.18       7          0         
NSC11-02#1       150        10         0.18       7          0         
NSC11-03#1       150        10         0.18       7          0         
NSC11-04#1       150        10         0.18       7          0         
NSC11-05#1       150        10         0.18       7          0         
NSC12-01#1       150        10         0.18       7          0         
NSC12-01#2       150        10         0.18       7          0         
NSC12-02#1       150        10         0.18       7          0         
NSC12-03#1       150        10         0.18       7          0         
NSC12-04#1       150        10         0.18       7          0         
NSC12-05#1       150        10         0.18       7          0         
NSC13-01#1       150        10         0.18       7          0         
NSC13-02#1       150        10         0.18       7          0         
NSC13-03#1       150        10         0.18       7          0         
NSC14-01#1       150        10         0.18       7          0         
NSC15-01#1       150        10         0.18       7          0         
NSC15-02#1       150        10         0.18       7          0         
NSC15-03#1       150        10         0.18       7          0         
NSC15-04#1       150        10         0.18       7          0         
NSC15-05#1       150        10         0.18       7          0         
NSC15-06#1       150        10         0.18       7          0         
NSC15-06#2       150        10         0.18       7          0         
NSC15-07#1       150        10         0.18       7          0         
NSC15-07#2       150        10         0.18       7          0         
NSC15-08#1       150        10         0.18       7          0         
NSC15-08#2       150        10         0.18       7          0         
NSC16-01#1       150        10         0.18       7          0         
NSC16-02#1       150        10         0.18       7          0         
NSC16-03#1       150        10         0.18       7          0         
NSC16-03#2       150        10         0.18       7          0         
NSC16-04#1       150        10         0.18       7          0         
NSC16-05#1       150        10         0.18       7          0         
NSC17-01#1       150        10         0.18       7          0         
NSC18-01#1       150        10         0.18       7          0         
NSC18-02#1       150        10         0.18       7          0         
NSC18-03#1       150        10         0.18       7          0         
NSC19-01#1       150        10         0.18       7          0         
NSC19-02#1       150        10         0.18       7          0         
NSC19-03#1       150        10         0.18       7          0         
NSC19-04#1       150        10         0.18       7          0         
NSC19-05#1       150        10         0.18       7          0         
NSC19-06#1       150        10         0.18       7          0         
NSC19-07#1       150        10         0.18       7          0         
NSC19-08#1       150        10         0.18       7          0         
NSC19-09#1       150        10         0.18       7          0         
NSC19-09#2       150        10         0.18       7          0         
NSC19-10#1       150        10         0.18       7          0         
NSC19-11#1       150        10         0.18       7          0         
NSC19-12#1       150        10         0.18       7          0         
NSC20-01#1       150        10         0.18       7          0         
NSC20-02#1       150        10         0.18       7          0         
NSC20-03#1       150        10         0.18       7          0         
NSC20-04#1       150        10         0.18       7          0         
NSC20-04#2       150        10         0.18       7          0         
NSC20-05#1       150        10         0.18       7          0         
NSC20-06#1       150        10         0.18       7          0         
NSC20-07#1       150        10         0.18       7          0         
NSC20-08#1       150        10         0.18       7          0         
NSC20-09#1       150        10         0.18       7          0         
NSC20-09#2       150        10         0.18       7          0         
NSC20-10#1       150        10         0.18       7          0         
NSC21-01#1       150        10         0.18       7          0         
NSC21-01#2       150        10         0.18       7          0         
NSC21-02#1       150        10         0.18       7          0         
NSC21-03#1       150        10         0.18       7          0         
NSC21-04#1       150        10         0.18       7          0         
NSC21-05#1       150        10         0.18       7          0         
NSC21-06#1       150        10         0.18       7          0         
NSC22-01#1       150        10         0.18       7          0         
NSC23-01#1       150        10         0.18       7          0         
NSC23-02#1       150        10         0.18       7          0         
NSC23-03#1       150        10         0.18       7          0         
NSC23-04#1       150        10         0.18       7          0         
NSR01-00#1       150        10         0.18       7          0         
NSR01-01#1       150        10         0.18       7          0         
NSR01-01#2       150        10         0.18       7          0         
NSR01-02#1       150        10         0.18       7          0         
NSR01-03#1       150        10         0.18       7          0         
NSR01-05#1       150        10         0.18       7          0         
NSR01-05#2       150        10         0.18       7          0         
NSR01-06#1       150        10         0.18       7          0         
NSR01-07#1       150        10         0.18       7          0         
NSR01-08#1       150        10         0.18       7          0         
NSR01-09#1       150        10         0.18       7          0         
NSR01-10#1       150        10         0.18       7          0         
NSR01-11#1       150        10         0.18       7          0         
NSR02-02#1       150        10         0.18       7          0         
NSR02-02#2       150        10         0.18       7          0         
NSR02-02#3       150        10         0.18       7          0         
NSR02-03#1       150        10         0.18       7          0         
NSR02-03#2       150        10         0.18       7          0         
NSR02-04#1       150        10         0.18       7          0         
NSR02-05#1       150        10         0.18       7          0         
NYS01-02#1       150        10         0.18       7          0         
NYS01-02#2       150        10         0.18       7          0         
NYS01-03#1       150        10         0.18       7          0         
NYS01-04#1       150        10         0.18       7          0         
NYS01-04#2       150        10         0.18       7          0         
NYS01-05#1       150        10         0.18       7          0         
NYS01-06#1       150        10         0.18       7          0         
NYS01-06#2       150        10         0.18       7          0         
NYS01-07#1       150        10         0.18       7          0         
NYS01-08#1       150        10         0.18       7          0         
NYS01-08#2       150        10         0.18       7          0         
NYS01-08#3       150        10         0.18       7          0         
NYS01-08#4       150        10         0.18       7          0         
NYS01-09#1       150        10         0.18       7          0         
NYS01-10#1       150        10         0.18       7          0         
NYS01-11#1       150        10         0.18       7          0         
NYS01-12#1       150        10         0.18       7          0         
NYS01-12#2       150        10         0.18       7          0         
NYS01-13#1       150        10         0.18       7          0         
NYS01-13#2       150        10         0.18       7          0         
NYS01-14#1       150        10         0.18       7          0         
NYS01-15#1       150        10         0.18       7          0         
NYS01-16#1       150        10         0.18       7          0         
NYS01-17#1       150        10         0.18       7          0         
NYS01-17#2       150        10         0.18       7          0         
NYS01-18#1       150        10         0.18       7          0         
NYS01-18#2       150        10         0.18       7          0         
NYS01-19#1       150        10         0.18       7          0         
NYS02-00#1       150        10         0.18       7          0         
NYS02-01#1       150        10         0.18       7          0         
NYS02-01#2       150        10         0.18       7          0         
NYS02-02#1       150        10         0.18       7          0         
NYS02-03#1       150        10         0.18       7          0         
NYS02-04#1       150        10         0.18       7          0         
NYS02-05#1       150        10         0.18       7          0         
NYS02-06#1       150        10         0.18       7          0         
NYS03-01#1       150        10         0.18       7          0         
NYS05-00#1       150        10         0.18       7          0         
NYS05-00#2       150        10         0.18       7          0         
NYS05-00#3       150        10         0.18       7          0         
NYS05-02#1       150        10         0.18       7          0         
NYS05-02#2       150        10         0.18       7          0         
NYS05-03#1       150        10         0.18       7          0         
NYS05-04#1       150        10         0.18       7          0         
NYS05-05#1       150        10         0.18       7          0         
NYS05-06#1       150        10         0.18       7          0         
NYS05-07#1       150        10         0.18       7          0         
NYS05-08#1       150        10         0.18       7          0         
NYS05-09#1       150        10         0.18       7          0         
NYS05-10#1       150        10         0.18       7          0         
NYS05-11#1       150        10         0.18       7          0         
NYS06-01#1       150        10         0.18       7          0         
NYS07-01#1       150        10         0.18       7          0         
NYS07-02#1       150        10         0.18       7          0         
NYS08-02#1       150        10         0.18       7          0         
NYS08-02#2       150        10         0.18       7          0         
NYS08-03#1       150        10         0.18       7          0         
NYS08-04#1       150        10         0.18       7          0         
NYS08-05#1       150        10         0.18       7          0         
NYS08-06#1       150        10         0.18       7          0         
NYS08-07#1       150        10         0.18       7          0         
NYS08-08#1       150        10         0.18       7          0         
NYS08-09#1       150        10         0.18       7          0         
NYS08-10#1       150        10         0.18       7          0         
NYS08-10#2       150        10         0.18       7          0         
NYS08-10#3       150        10         0.18       7          0         
NYS08-11#1       150        10         0.18       7          0         
NYS08-12#1       150        10         0.18       7          0         
NYS09-01#1       150        10         0.18       7          0         
NYS09-02#1       150        10         0.18       7          0         
NYS10-01#1       150        10         0.18       7          0         
NYS10-02#1       150        10         0.18       7          0         
NYS11-01#1       150        10         0.18       7          0         
NYS11-02#1       150        10         0.18       7          0         
NYS11-03#1       150        10         0.18       7          0         
NYS11-04#1       150        10         0.18       7          0         
NYS12-01#1       150        10         0.18       7          0         
NYS12-02#1       150        10         0.18       7          0         
NYS12-03#1       150        10         0.18       7          0         
NYS12-04#1       150        10         0.18       7          0         
NYS12-05#1       150        10         0.18       7          0         
NYS12-06#1       150        10         0.18       7          0         
NYS13-01#1       150        10         0.18       7          0         
NYS13-01#2       150        10         0.18       7          0         
NYS13-02#1       150        10         0.18       7          0         
NYS13-03#1       150        10         0.18       7          0         
NYS13-04#1       150        10         0.18       7          0         
NYS13-05#1       150        10         0.18       7          0         
NYS13-06#1       150        10         0.18       7          0         
NYS13-07#1       150        10         0.18       7          0         
NYS13-08#1       150        10         0.18       7          0         
NYS14-01#1       150        10         0.18       7          0         
NYS14-02#1       150        10         0.18       7          0         
NYS14-03#1       150        10         0.18       7          0         
NYS15-01#1       150        10         0.18       7          0         
NYS15-02#1       150        10         0.18       7          0         
NYS15-03#1       150        10         0.18       7          0         
NYS15-03#2       150        10         0.18       7          0         
NYS16-01#1       150        10         0.18       7          0         
NYS16-02#1       150        10         0.18       7          0         
NYS16-03#1       150        10         0.18       7          0         
NYS16-04#1       150        10         0.18       7          0         
NYS17-01#1       150        10         0.18       7          0         
NYS18-01#1       150        10         0.18       7          0         
NYS18-02#1       150        10         0.18       7          0         
SDCM_006#1       150        10         0.18       7          0         
SDCM_010#1       150        10         0.18       7          0         
SDCM_016_1#1     150        10         0.18       7          0         
SDCM_020#1       150        10         0.18       7          0         
SDCM_026#1       150        10         0.18       7          0         
SDCM_032#1       150        10         0.18       7          0         
SDCM_039#1       150        10         0.18       7          0         

[JUNCTIONS]
;;Name           Elevation  MaxDepth   InitDepth  SurDepth   Aponded   
;;-------------- ---------- ---------- ---------- ---------- ----------
1                9.16       14.84      0          0          0         
MH2016           11.42      4.83       0          0          0         
MH2018           10.3       3.3        0          0          0         
MH2019           12.53      3.94       0          0          0         
MH2020           10.4       3.3        0          0          0         
NBC01-00         9.35       8.28       0          0          0         
NBC01-01         10.06      7.34       0          0          0         
NBC01-02         10.24      5          0          0          0         
NBC01-02.1       10.06      5.39       0          0          0         
NBC01-04         10.24      4.62       0          0          0         
NBC01-05         10.24      5.12       0          0          0         
NBC01-06         10.55      4.99       0          0          0         
NBC01-07         10.56      5.04       0          0          0         
NBC01-08         10.58      5.02       0          0          0         
NBC01-09         10.61      4.95       0          0          0         
NBC01-10         10.63      5.07       0          0          0         
NBC01-11         10.67      4.95       0          0          0         
NBC01-12         10.7       5.14       0          0          0         
NBC01-13         10.73      4.89       0          0          0         
NBC01-14         10.83      4.88       0          0          0         
NBC01-15         10.94      4.88       0          0          0         
NBC01-16         11.03      5.07       0          0          0         
NBC01-17         11.14      5.02       0          0          0         
NBC01-17.1       11.46      5.86       0          0          0         
NBC01-18.1       11.86      7.01       0          0          0         
NBC01-18.2       12.24      3.96       0          0          0         
NBC01-19         12.1       3.7        0          0          0         
NBC01-20         11.68      4.18       0          0          0         
NBC01-20.1       11.81      4.48       0          0          0         
NBC02-01         13.24      3.76       0          0          0         
NBC03-01         16.1       2          0          0          0         
NBC03-02         18.95      2.32       0          0          0         
NBC03-03         25.18      2.32       0          0          0         
NBC03-04         29.61      2.25       0          0          0         
NBC03-05         38.49      2.45       0          0          0         
NBC04-01         20.36      2.05       0          0          0         
NBC04-02         23.84      2.36       0          0          0         
NBC09-00         12.91      6.09       0          0          0         
NBC10-00         11.35      3.55       0          0          0         
NBC11-02         12.02      2.9        0          0          0         
NBC11-03         13.52      2.58       0          0          0         
NBC12-00         12.65      2.65       0          0          0         
NBC13-01         10.62      4.17       0          0          0         
NBC13-02         10.88      3.9        0          0          0         
NBC13-03         10.92      3.82       0          0          0         
NBC13-04         11.87      2.6        0          0          0         
NBC13-05         11.6       3.18       0          0          0         
NBC14-01         10.51      4.31       0          0          0         
NBC14-02         10.87      3.93       0          0          0         
NBC14-03         11.12      3.44       0          0          0         
NBC14-04         11.2       3.36       0          0          0         
NBC14-05         11.71      3.07       0          0          0         
NBC15-01         11.27      3.33       0          0          0         
NBC15-02         11.48      3.13       0          0          0         
NBC16-00         10.15      4.85       0          0          0         
NBC16-02         11.2       3.32       0          0          0         
NBC16-03         11.27      3.25       0          0          0         
NBC16-04         11.35      3.4        0          0          0         
NBC16-05         11.42      3.28       0          0          0         
NBC16-06         11.55      3.27       0          0          0         
NBC16-07         12.08      2.47       0          0          0         
NBC17-01         12.94      2.16       0          0          0         
NBC18-01         12.07      2.75       0          0          0         
NBP01-01         4.85       7.13       0          0          0         
NBP01-03         4.89       5.59       0          0          0         
NBP01-04         5.02       9.66       0          0          0         
NBP01-05         5.44       13.48      0          0          0         
NBP01-06         5.95       3.37       0          0          0         
NBP01-07         6.04       3.43       0          0          0         
NBP01-08         6.12       4.93       0          0          0         
NBP01-09         6.48       7.04       0          0          0         
NBP01-10         6.59       9.36       0          0          0         
NBP01-11         6.63       8.87       0          0          0         
NBP01-12         7.01       4.36       0          0          0         
NBP01-13         7.28       4.08       0          0          0         
NBP01-14         7.74       4.44       0          0          0         
NBP01-14.1       8          4.19       0          0          0         
NBP01-15         8.07       4.54       0          0          0         
NBP01-16         8.11       4.56       0          0          0         
NBP01-17         8.19       4.66       0          0          0         
NBP01-18         8.21       4.74       0          0          0         
NBP01-19         8.23       6.23       0          0          0         
NBP01-20         8.3        6.99       0          0          0         
NBP01-20.1       8.3        6.99       0          0          0         
NBP01-20.2       8.32       5.58       0          0          0         
NBP01-21         8.92       4.07       0          0          0         
NBP01-22         8.96       3.25       0          0          0         
NBP01-22.1       9.4        2.75       0          0          0         
NBP01-23         10.48      3.66       0          0          0         
NBP01-24         11.41      5.01       0          0          0         
NBP01-25         12.05      3.49       0          0          0         
NBP01-26         12.33      3.84       0          0          0         
NBP01-27         12.53      4.57       0          0          0         
NBP01-28         13.46      3.71       0          0          0         
NBP01-29         14.23      3.42       0          0          0         
NBP01-30         16.36      2.36       0          0          0         
NBP01-31         21.22      2.3        0          0          0         
NBP02-01         5.88       7.28       0          0          0         
NBP02-02         7.41       3.27       0          0          0         
NBP02-03         7.65       3.04       0          0          0         
NBP02-04         8.96       2.88       0          0          0         
NBP03-01         6.17       5.32       0          0          0         
NBP03-02         6.28       4.75       0          0          0         
NBP03-03         7.01       3.69       0          0          0         
NBP03-04         7.35       3.35       0          0          0         
NBP04-01         7.18       3.44       0          0          0         
NBP04-02         7.52       3.4        0          0          0         
NBP04-03         7.89       3.08       0          0          0         
NBP04-04         7.9        3.12       0          0          0         
NBP04-05         8.02       2.93       0          0          0         
NBP04-06         8.3        2.95       0          0          0         
NBP04-07         8.39       2.75       0          0          0         
NBP04-08         8.45       2.82       0          0          0         
NBP04-09         8.55       3.29       0          0          0         
NBP04-10         8.75       3.02       0          0          0         
NBP04-11         9.61       3.46       0          0          0         
NBP04-12         10.77      3          0          0          0         
NBP04-13         10.83      1.78       0          0          0         
NBP05-01         8.46       2.9        0          0          0         
NBP05-02         9.18       2.32       0          0          0         
NBP05-03         10.43      2.1        0          0          0         
NBP06-01         6.64       4.09       0          0          0         
NBP06-02         6.95       3.8        0          0          0         
NBP06-03         7.44       3.77       0          0          0         
NBP06-04         7.48       3.42       0          0          0         
NBP06-05         7.35       3.92       0          0          0         
NBP06-06         8.63       3.46       0          0          0         
NBP06-07         8.76       3.51       0          0          0         
NBP06-08         9.39       2.83       0          0          0         
NBP06-09         9.41       2.9        0          0          0         
NBP06-11         9.78       3          0          0          0         
NBP06-12         11.25      4.85       0          0          0         
NBP07-01         10.31      2.48       0          0          0         
NBP07-02         10.64      2.6        0          0          0         
NBP08-01         9          4.29       0          0          0         
NBP08-02         10.82      2.4        0          0          0         
NBP08-03         11.95      2.07       0          0          0         
NBP08-04         12.27      2.77       0          0          0         
NBP08-06         12.32      2.2        0          0          0         
NBP09-01         11.12      2.43       0          0          0         
NBP09-02         15.27      2.5        0          0          0         
NBP10-01         14.4       2.48       0          0          0         
NBP11-01         8.78       3.13       0          0          0         
NBP11-02         9.51       2.79       0          0          0         
NBP11-03         10.7       2.65       0          0          0         
NBP11-04         11.37      3.33       0          0          0         
NBP11-05         11.51      3.19       0          0          0         
NBP11-05.1       11.7       2.65       0          0          0         
NBP11-06         11.89      2.44       0          0          0         
NBP11-07         12.45      2.33       0          0          0         
NBP12-01         14.43      1.78       0          0          0         
NBP12-02         17.98      3.11       0          0          0         
NBP13-01         9.67       2.76       0          0          0         
NBP13-01.1       10.1       2.52       0          0          0         
NBP13-01.2       10.19      2.73       0          0          0         
NBP13-02         10.49      2.73       0          0          0         
NBP13-03         11.02      2.51       0          0          0         
NBP13-04         11.07      2.51       0          0          0         
NBP13-05         11.52      2.24       0          0          0         
NBP13-06         11.78      2.35       0          0          0         
NBP13-07         12.91      3.4        0          0          0         
NBP13-08         13.83      3.21       0          0          0         
NBP13-09         14.5       2.72       0          0          0         
NBP13-10         15.2       2.5        0          0          0         
NBP13-11         15.73      3.11       0          0          0         
NBP13-12         16.72      1.84       0          0          0         
NBP13-13         17.05      1.97       0          0          0         
NBP13-14         17.25      2.1        0          0          0         
NBP14-01         16.23      3.32       0          0          0         
NBP15-01         13.46      4.69       0          0          0         
NBPC-01          3.62       15.37      0          0          0         
NBPC-02          3.97       15.37      0          0          0         
NBPC-03          3.74       14.91      0          0          0         
NBPC-04          4.98       14.91      0          0          0         
NBPC-05          5.27       13.12      0          0          0         
NBPC-06          5.33       13.22      0          0          0         
NBPC-07          5.33       13.22      0          0          0         
NBPC-08          5.65       10.94      0          0          0         
NBPC-09          5.3        11.48      0          0          0         
NBPC-10          5.82       11.14      0          0          0         
NBPC-11          5.66       10.9       0          0          0         
NBPC-12          5.83       10.85      0          0          0         
NBPC-13          5.92       10.83      0          0          0         
NBPC-14          6.25       10.78      0          0          0         
NBPC-15          6          10.65      0          0          0         
NBPC-17          6.26       10.92      0          0          0         
NBPC-18          6.38       13.92      0          0          0         
NBPC-19          6.68       13.92      0          0          0         
NBPC-20          6.77       12.08      0          0          0         
NBPC-21          6.7        10.11      0          0          0         
NBPC-22          7.1        9.48       0          0          0         
NBPC-23          7.17       9.49       0          0          0         
NBPC-24          7.87       9.49       0          0          0         
NBPC-25          8.11       8.84       0          0          0         
NBPC-26          8.55       9.63       0          0          0         
NBPC-27          8.58       8          0          0          0         
NBPC-28          8.59       8.24       0          0          0         
NBPC-29          8.61       9.03       0          0          0         
NBPC-30          8.61       9.14       0          0          0         
NBPC-31          8.63       9.18       0          0          0         
NBPC-32          8.63       9          0          0          0         
NH1-01           12.13      14.5       0          0          0         
NH1-02           12.16      11.84      0          0          0         
NH7              12.59      3.65       0          0          0         
NH7.1            12.29      4.08       0          0          0         
NHM_006          51.08      3.9        0          0          0         
NHM_010          49.955     3.945      0          0          0         
NHM_016          0          56.11      0          0          0         
NHM_022          43.52      4          0          0          0         
NHM_034          43.82      4.08       0          0          0         
NNH01-00         11.83      4.56       0          0          0         
NNH01-01         12.38      3.97       0          0          0         
NNH01-01.1       12.33      3.67       0          0          0         
NNH01-01.2       12.35      3.65       0          0          0         
NNH01-01.3       12.36      3.65       0          0          0         
NNH01-02         12.75      4.05       0          0          0         
NNH01-03         12.94      3.95       0          0          0         
NNH01-04         13.1       4.21       0          0          0         
NNH01-05         13.2       5.39       0          0          0         
NNH01-05.1       13.09      5.8        0          0          0         
NNH01-06         12.98      5.81       0          0          0         
NNH01-07         13.02      4.02       0          0          0         
NNH01-07.1       13.05      4.38       0          0          0         
NNH01-09         13.18      4.16       0          0          0         
NNH01-10         13.21      4.04       0          0          0         
NNH01-11         13.27      4          0          0          0         
NNH01-12         13.76      4.23       0          0          0         
NNH01-13         14.2       3.09       0          0          0         
NNH01-14         14.23      3.09       0          0          0         
NNH01-15         14.24      3.06       0          0          0         
NNH01-16         14.6       3.06       0          0          0         
NNH01-17         15         3.61       0          0          0         
NNH01-18         16         3.08       0          0          0         
NNH01-19         16.5       2.56       0          0          0         
NNH01-20         22.3       3.82       0          0          0         
NNH01-21         23.84      2.28       0          0          0         
NNH01-22         23.84      2.92       0          0          0         
NNH01-23         25.72      2.68       0          0          0         
NNH01-24         26.48      2.33       0          0          0         
NNH01-25         26.64      2.66       0          0          0         
NNH01-26         29.91      4.37       0          0          0         
NNH01-27         32.75      2.97       0          0          0         
NNH01-28         37.85      1.97       0          0          0         
NNH01-29         40.86      1.4        0          0          0         
NNH02-01         14.65      2.61       0          0          0         
NNH02-02         19.73      1.5        0          0          0         
NNH03-01         14.8       2.27       0          0          0         
NNH03-02         15         1.98       0          0          0         
NNH03-03         16.5       1.6        0          0          0         
NNH04-01         16.25      1.69       0          0          0         
NNH04-02         18.07      2.07       0          0          0         
NNH04-03         19.52      1.55       0          0          0         
NNH04-04         26.29      0.89       0          0          0         
NNH05-01         17.43      1.96       0          0          0         
NNH05-02         19.6       1.5        0          0          0         
NNH05-03         27.1       1.54       0          0          0         
NNH06-01         17.55      2.05       0          0          0         
NNH07-01         15         3.54       0          0          0         
NNH07-02         18.16      2.74       0          0          0         
NNH07-03         23.94      5.35       0          0          0         
NNH07-04         28.61      4.74       0          0          0         
NNH07-05         31.04      4.73       0          0          0         
NNH07-06         31.18      4.55       0          0          0         
NNH07-07         31.52      3.31       0          0          0         
NNH07-08         31.86      3.3        0          0          0         
NNH07-09         33.4       2.79       0          0          0         
NNH07-10         34.78      2.22       0          0          0         
NNH07-11         35.19      1.79       0          0          0         
NNH07-12         37.13      2.12       0          0          0         
NNH07-13         38.96      2.64       0          0          0         
NNH07-14         40.66      1.85       0          0          0         
NNH08-01         27.86      1.78       0          0          0         
NNH08-02         38.63      1.72       0          0          0         
NNH08-03         39.31      2          0          0          0         
NNH09-01         27.42      1.48       0          0          0         
NNH10-01         34.07      2.3        0          0          0         
NNH10-02         37.44      2.57       0          0          0         
NNH10-03         39.16      2.24       0          0          0         
NNH10-04         44.83      1.67       0          0          0         
NNH11-01         35.52      4.79       0          0          0         
NNH11-02         37.09      2.37       0          0          0         
NNH11-03         38.42      3.15       0          0          0         
NNH11-04         40.55      1.78       0          0          0         
NNH12-01         19.23      1.78       0          0          0         
NNH12-02         31.5       1.96       0          0          0         
NNH13-01         20.96      1.63       0          0          0         
NNH14-01         21.93      2.4        0          0          0         
NNH14-02         28.27      3.14       0          0          0         
NNH15-01         23.45      2.65       0          0          0         
NNH15-02         24.01      2.61       0          0          0         
NNH15-03         24.64      2.4        0          0          0         
NNH15-04         27.6       2.1        0          0          0         
NNH15-05         29.54      2.58       0          0          0         
NNH15-06         36.32      1.98       0          0          0         
NNH15-07         46.64      1.94       0          0          0         
NNH16-01         30.46      2.19       0          0          0         
NNH17-01         24.63      1.82       0          0          0         
NNH17-02         27.24      1.24       0          0          0         
NNH18-01         24.22      3          0          0          0         
NNH18-02         26.66      2.2        0          0          0         
NNH18-03         30.06      2.09       0          0          0         
NNH18-04         33.46      2.5        0          0          0         
NNH18-05         35.8       2.1        0          0          0         
NNH18-06         43.3       2.33       0          0          0         
NNH18-07         46.62      2.14       0          0          0         
NSC01-01         13.65      3.81       0          0          0         
NSC01-02         14.31      3.33       0          0          0         
NSC01-03         14.38      3.3        0          0          0         
NSC01-04         14.76      3.02       0          0          0         
NSC01-05         14.84      3.15       0          0          0         
NSC01-06         14.97      3.32       0          0          0         
NSC01-07         15.95      3.08       0          0          0         
NSC01-07.1       15.98      3.01       0          0          0         
NSC01-08         16.2       3          0          0          0         
NSC01-09         16.81      3.06       0          0          0         
NSC01-10         16.96      3.19       0          0          0         
NSC01-11         17.81      3.01       0          0          0         
NSC01-11.1       17.63      2.77       0          0          0         
NSC01-12         18.32      3.18       0          0          0         
NSC01-13         19.32      4.5        0          0          0         
NSC01-14         22.43      3.81       0          0          0         
NSC01-15         23.31      3.72       0          0          0         
NSC01-16         24.53      2.99       0          0          0         
NSC01-17         24.93      3.01       0          0          0         
NSC01-18         25.6       2.32       0          0          0         
NSC01-19         28.62      2.53       0          0          0         
NSC01-20         32.98      2.7        0          0          0         
NSC01-21         33.22      3.51       0          0          0         
NSC01-22         34.26      2.99       0          0          0         
NSC02-01         18.51      1.55       0          0          0         
NSC02-02         18.75      1.49       0          0          0         
NSC02-03         18.59      1.57       0          0          0         
NSC02-04         20.77      2.07       0          0          0         
NSC03-01         22.12      1.21       0          0          0         
NSC04-01         20.11      1.39       0          0          0         
NSC05-01         16.55      1.97       0          0          0         
NSC05-02         17.13      1.77       0          0          0         
NSC05-03         17.65      1.96       0          0          0         
NSC05-04         18.2       1.94       0          0          0         
NSC05-05         19.2       2.01       0          0          0         
NSC05-06         19.45      2.97       0          0          0         
NSC05-07         22.3       2.13       0          0          0         
NSC05-08         24.32      1.74       0          0          0         
NSC06-01         16.15      2.41       0          0          0         
NSC06-02         18.42      3.13       0          0          0         
NSC06-03         20.85      2.9        0          0          0         
NSC06-04         21.35      3.45       0          0          0         
NSC06-05         21.65      3.42       0          0          0         
NSC07-01         17.53      1.77       0          0          0         
NSC07-02         18.15      2.7        0          0          0         
NSC07-03         20.12      1.55       0          0          0         
NSC07-04         20.28      2.14       0          0          0         
NSC08-01         22.65      3.22       0          0          0         
NSC08-02         26.41      3.46       0          0          0         
NSC08-03         28.15      5.01       0          0          0         
NSC09-01         19.13      1.79       0          0          0         
NSC09-02         19.36      1.93       0          0          0         
NSC10-00         16.66      2.78       0          0          0         
NSC10-01         17.1       2.79       0          0          0         
NSC10-02         17.43      3.03       0          0          0         
NSC10-03         17.69      2.84       0          0          0         
NSC10-04         17.94      2.75       0          0          0         
NSC10-05         18.94      2.56       0          0          0         
NSC10-06         21.5       2.3        0          0          0         
NSC10-07         22.4       2.48       0          0          0         
NSC10-08         24.04      2.47       0          0          0         
NSC10-09         24.62      2.35       0          0          0         
NSC10-10         26.06      2.08       0          0          0         
NSC10-11         26.98      4.4        0          0          0         
NSC10-12         29.29      2.56       0          0          0         
NSC10-13         31.78      2.64       0          0          0         
NSC10-14         37.5       3.13       0          0          0         
NSC10-15         40.68      3.55       0          0          0         
NSC10-16         53.08      3.3        0          0          0         
NSC10-17         54.65      2.67       0          0          0         
NSC11-01         19.12      2.25       0          0          0         
NSC11-02         22.85      2.17       0          0          0         
NSC11-03         24.67      1.85       0          0          0         
NSC11-04         28.44      3.32       0          0          0         
NSC11-05         30.83      4.59       0          0          0         
NSC12-01         27.13      2.83       0          0          0         
NSC12-02         30.76      2.96       0          0          0         
NSC12-03         35.54      1.96       0          0          0         
NSC12-04         42.33      3.76       0          0          0         
NSC12-05         43.12      3.54       0          0          0         
NSC13-01         28.81      1.57       0          0          0         
NSC13-02         29.29      2.78       0          0          0         
NSC13-03         35.73      2.12       0          0          0         
NSC14-01         26.05      2.47       0          0          0         
NSC15-00.1       12.47      7.19       0          0          0         
NSC15-00.2       12.19      5.76       0          0          0         
NSC15-00.3       12.48      3.35       0          0          0         
NSC15-01         13.08      3.41       0          0          0         
NSC15-02         14.69      3.35       0          0          0         
NSC15-03         14.82      4.08       0          0          0         
NSC15-04         15.26      4.86       0          0          0         
NSC15-05         15.66      4.7        0          0          0         
NSC15-06         15.82      3.3        0          0          0         
NSC15-06.1       15.88      3.42       0          0          0         
NSC15-07         15.85      3.25       0          0          0         
NSC15-08         14.65      4.47       0          0          0         
NSC16-01         17.29      2.93       0          0          0         
NSC16-02         17.3       3.29       0          0          0         
NSC16-03         18.64      3.44       0          0          0         
NSC16-04         23.15      1.96       0          0          0         
NSC16-05         25.46      2.9        0          0          0         
NSC17-01         22.82      5.44       0          0          0         
NSC18-01         16.32      2.18       0          0          0         
NSC18-02         16.74      1.77       0          0          0         
NSC18-03         17.21      1.7        0          0          0         
NSC19-01         16.19      3.08       0          0          0         
NSC19-02         16.34      2.95       0          0          0         
NSC19-03         16.38      2.97       0          0          0         
NSC19-04         16.39      3          0          0          0         
NSC19-05         16.39      3.01       0          0          0         
NSC19-06         16.9       3.2        0          0          0         
NSC19-07         17.8       3.3        0          0          0         
NSC19-08         18.42      2.92       0          0          0         
NSC19-09         19.1       2.6        0          0          0         
NSC19-10         21.42      3.1        0          0          0         
NSC19-11         24.66      3.36       0          0          0         
NSC19-12         29.52      4.47       0          0          0         
NSC20-01         20.31      3.42       0          0          0         
NSC20-02         21.27      3.35       0          0          0         
NSC20-03         23         2.62       0          0          0         
NSC20-04         23.75      2.34       0          0          0         
NSC20-05         24.35      2.55       0          0          0         
NSC20-06         25.15      2.51       0          0          0         
NSC20-07         28.32      5          0          0          0         
NSC20-08         31.12      2.67       0          0          0         
NSC20-09         31.25      2.87       0          0          0         
NSC20-10         31.5       2.36       0          0          0         
NSC21-01         31.46      1.83       0          0          0         
NSC21-02         32.76      1.91       0          0          0         
NSC21-03         34.26      2.05       0          0          0         
NSC21-04         40.19      2.8        0          0          0         
NSC21-05         43.08      2.6        0          0          0         
NSC21-06         48.15      2.14       0          0          0         
NSC22-01         31.7       1.56       0          0          0         
NSC23-01         25.52      2.74       0          0          0         
NSC23-02         27.98      2.42       0          0          0         
NSC23-03         30.89      2.42       0          0          0         
NSC23-04         34.85      2.82       0          0          0         
NSR01-00         9.52       5.88       0          0          0         
NSR01-01         10         4.9        0          0          0         
NSR01-02         10.5       2.48       0          0          0         
NSR01-03         8.96       4.14       0          0          0         
NSR01-05         11.76      1.79       0          0          0         
NSR01-06         12.04      1.8        0          0          0         
NSR01-07         13.1       1.86       0          0          0         
NSR01-08         19.33      1.6        0          0          0         
NSR01-09         19.26      1.95       0          0          0         
NSR01-10         19.87      1.67       0          0          0         
NSR01-11         22.34      1.89       0          0          0         
NSR02-02         7.82       5.61       0          0          0         
NSR02-03         8.62       4.7        0          0          0         
NSR02-04         10.4       3.05       0          0          0         
NSR02-05         10.84      3.12       0          0          0         
NTP00            9.26       18.74      0          0          0         
NTP01            9.21       74.82      0          0          0         
NYS01-02         13.13      3.98       0          0          0         
NYS01-02.1       12.2       4.01       0          0          0         
NYS01-02.2       12.28      4.02       0          0          0         
NYS01-02.3       12.39      3.99       0          0          0         
NYS01-02.4       12.69      3.69       0          0          0         
NYS0102.5        12.39      3.99       0          0          0         
NYS01-02.6       12.36      3.89       0          0          0         
NYS01-02.7       12.66      3.59       0          0          0         
NYS01-02.8       12.36      3.89       0          0          0         
NYS01-03         13.99      3.44       0          0          0         
NYS01-03.1       13.43      3.95       0          0          0         
NYS01-04         14.19      3.3        0          0          0         
NYS01-05         14.47      3.11       0          0          0         
NYS01-06         14.59      3.07       0          0          0         
NYS01-07         14.63      3.08       0          0          0         
NYS01-08         14.78      2.93       0          0          0         
NYS01-09         14.78      2.67       0          0          0         
NYS01-10         15         3          0          0          0         
NYS01-11         17.22      3.78       0          0          0         
NYS01-12         18.32      3.28       0          0          0         
NYS01-13         19.2       2.8        0          0          0         
NYS01-14         20.54      1.77       0          0          0         
NYS01-15         20.6       2.66       0          0          0         
NYS01-16         22.67      1.79       0          0          0         
NYS01-17         23.2       2.8        0          0          0         
NYS01-18         23.58      2.77       0          0          0         
NYS01-19         24.2       2.38       0          0          0         
NYS02-00         12.2       4.55       0          0          0         
NYS02-01         12.82      4.32       0          0          0         
NYS02-02         15.12      1.94       0          0          0         
NYS02-03         15.33      2.07       0          0          0         
NYS02-04         18.35      1.58       0          0          0         
NYS02-05         23.58      1.18       0          0          0         
NYS02-06         28.78      1.18       0          0          0         
NYS03-01         15.95      1.43       0          0          0         
NYS05-00         12.91      4.39       0          0          0         
NYS05-02         14.46      3.16       0          0          0         
NYS05-03         15.58      1.95       0          0          0         
NYS05-04         15.59      1.85       0          0          0         
NYS05-05         15.71      1.71       0          0          0         
NYS05-06         18.69      2.93       0          0          0         
NYS05-07         20.37      2.67       0          0          0         
NYS05-08         24.85      1.29       0          0          0         
NYS05-09         27.3       2.19       0          0          0         
NYS05-10         27.96      1.86       0          0          0         
NYS05-11         28.03      1.9        0          0          0         
NYS06-01         16.45      1.17       0          0          0         
NYS07-01         16.16      1.74       0          0          0         
NYS07-02         17.41      1.6        0          0          0         
NYS08-02         15.6       4          0          0          0         
NYS08-03         16.05      3.55       0          0          0         
NYS08-04         17.25      2.35       0          0          0         
NYS08-05         19.2       3.25       0          0          0         
NYS08-06         19.24      2.42       0          0          0         
NYS08-07         19.65      2.62       0          0          0         
NYS08-08         24.15      3          0          0          0         
NYS08-09         27.54      3.19       0          0          0         
NYS08-10         27.95      2.76       0          0          0         
NYS08-11         29.19      1.88       0          0          0         
NYS08-12         32.38      3.38       0          0          0         
NYS09-01         28.66      1.55       0          0          0         
NYS09-02         28.82      1.47       0          0          0         
NYS10-01         37.09      2.29       0          0          0         
NYS10-02         43.78      2.22       0          0          0         
NYS11-01         20.81      3.07       0          0          0         
NYS11-02         25.11      2.34       0          0          0         
NYS11-03         30.58      2.56       0          0          0         
NYS11-04         34.81      2.43       0          0          0         
NYS12-01         19.8       3          0          0          0         
NYS12-02         21.41      3.85       0          0          0         
NYS12-03         22.57      2.13       0          0          0         
NYS12-04         24.19      2.2        0          0          0         
NYS12-05         26.09      2.45       0          0          0         
NYS12-06         28.1       1.65       0          0          0         
NYS13-01         15.11      2.62       0          0          0         
NYS13-02         16.44      2.71       0          0          0         
NYS13-03         20.06      2.14       0          0          0         
NYS13-04         24.34      2.82       0          0          0         
NYS13-05         24.55      3.37       0          0          0         
NYS13-06         24.7       3.46       0          0          0         
NYS13-07         24.8       3.41       0          0          0         
NYS13-08         25.09      1.71       0          0          0         
NYS14-01         17.18      1.06       0          0          0         
NYS14-02         17.98      1.58       0          0          0         
NYS14-03         20.78      1.36       0          0          0         
NYS15-01         16.5       1.68       0          0          0         
NYS15-02         17         2.04       0          0          0         
NYS15-03         17.32      2.01       0          0          0         
NYS16-01         24.37      1.74       0          0          0         
NYS16-02         24.91      1.7        0          0          0         
NYS16-03         25.74      1.79       0          0          0         
NYS16-04         27.58      2.04       0          0          0         
NYS17-01         24.67      2.7        0          0          0         
NYS18-01         17.61      1.91       0          0          0         
NYS18-02         18.38      2.2        0          0          0         
NYS90            11.87      4.46       0          0          0         
NYS92-01         12.28      4.02       0          0          0         
NYS92-01.1       12.2       4.01       0          0          0         
NYS95-00         12.47      4.03       0          0          0         
NYS95-01         12.3       4.44       0          0          0         
NYS96-1.2        12.1       4.05       0          0          0         
NYS96-2.2        12.4       3.75       0          0          0         
NYS99-02         12.5       4.61       0          0          0         
NYS99-03         12.58      4.39       0          0          0         
NYS99-04         15.1       3.2        0          0          0         
NYS99-05         15.11      2.63       0          0          0         
NYS99-06         13.04      4.24       0          0          0         
ooooo            10.81      8.31       0          0          0         
SDCM_001         40.32      7.09       0          0          0         
SDCM_003         36.44      4.27       0          0          0         
SDCM_004         34.88      6.27       0          0          0         
SDCM_006         26.78      3.47       0          0          0         
SDCM_007         24.49      3.69       0          0          0         
SDCM_008         23.37      3.31       0          0          0         
SDCM_009         21.55      3.35       0          0          0         
SDCM_010         20.72      4.38       0          0          0         
SDCM_011         18.7       3.05       0          0          0         
SDCM_012         15.74      2.85       0          0          0         
SDCM_013         15.15      3.27       0          0          0         
SDCM_014         14.74      3.41       0          0          0         
SDCM_016         13.57      4.04       0          0          0         
SDCM_016_1       12.8       3.6        0          0          0         
SDCM_017         12.57      4.32       0          0          0         
SDCM_017_1       11.81      4.19       0          0          0         
SDCM_020         11.39      4.01       0          0          0         
SDCM_020_2       11.16      4.07       0          0          0         
SDCM_023         10.76      4.34       0          0          0         
SDCM_024         10.51      4.55       0          0          0         
SDCM_025         10.07      4.79       0          0          0         
SDCM_026         10.06      4.87       0          0          0         
SDCM_026_1       9.64       5.66       0          0          0         
SDCM_027         9.58       5.96       0          0          0         
SDCM_028         9.03       5.65       0          0          0         
SDCM_031         7.95       6.34       0          0          0         
SDCM_032         7.41       6.89       0          0          0         
SDCM_033         6.76       7.83       0          0          0         
SDCM_034         6.51       8.15       0          0          0         
SDCM_035         6.39       8.21       0          0          0         
SDCM_036         6.19       8.49       0          0          0         
SDCM_037         5.96       9.08       0          0          0         
SDCM_038         5.4        9.95       0          0          0         
SDCM_039         5.22       9.88       0          0          0         
SDCM_039_1       5.21       11.29      0          0          0         
Temp             6.08       10.92      0          0          0         

[OUTFALLS]
;;Name           Elevation  Type       Stage Data       Gated    Route To        
;;-------------- ---------- ---------- ---------------- -------- ----------------
NBPC-00          2.39       FIXED      10.5             YES                      

[STORAGE]
;;Name           Elev.    MaxDepth   InitDepth  Shape      Curve Type/Params            SurDepth  Fevap    Psi      Ksat     IMD     
;;-------------- -------- ---------- ----------- ---------- ---------------------------- --------- --------          -------- --------
Str_BP           4.5      5.9        0          TABULAR    Str_BP_ST                    13591.4   0       
Str_Sc           3.2      12.69      0          TABULAR    Str_Sc_ST                    13591.4   0       
Str_SR           5.5      4.1        0          TABULAR    Str_SR_ST                    13591.4   0       
Str_SP           2        9.5        0          TABULAR    Str_SP_ST                    13591.4   0       

[CONDUITS]
;;Name           From Node        To Node          Length     Roughness  InOffset   OutOffset  InitFlow   MaxFlow   
;;-------------- ---------------- ---------------- ---------- ---------- ---------- ---------- ---------- ----------
LBP01-30         NBP01-31         NBP01-30         242.4      0.015      0          0          0          0         
LBP01-29         NBP01-30         NBP01-29         77.31      0.015      0          0          0          0         
LBP01-28         NBP01-29         NBP01-28         134.76     0.015      0          0          0          0         
LBP01-27         NBP01-28         NBP01-27         30.37      0.015      0          0.71       0          0         
LBP01-26         NBP01-27         NBP01-26         76.61      0.015      0          0          0          0         
LBP01-25         NBP01-26         NBP01-25         81.93      0.015      0          0.01       0          0         
216.1            NBP01-25         NBP01-24         186.05     0.015      0          0          0          0         
p-01             NBP01-25         NBP01-24         186.05     0.015      0          0          0          0         
218.1            NBP01-24         NBP01-23         198.12     0.015      0          0          0          0         
p-02             NBP01-24         NBP01-23         198.12     0.015      0          0          0          0         
220.1            NBP01-23         NBP01-22.1       159.64     0.015      0          0.2        0          0         
p-03             NBP01-23         NBP01-22.1       159.64     0.015      0          0.2        0          0         
222.1            NBP01-22         NBP01-21         56.75      0.015      0.33       0          0          0         
p-05             NBP01-22         NBP01-21         56.75      0.015      0.33       0          0          0         
226.1            NBP01-19         NBP01-18         117.71     0.015      0          0          0          0         
L-05             NBP01-19         NBP01-18         117.71     0.015      0          0          0          0         
228.1            NBP01-18         NBP01-17         66.27      0.015      0          0          0          0         
L-04             NBP01-18         NBP01-17         66.27      0.015      0          0          0          0         
230.1            NBP01-17         NBP01-16         133.02     0.015      0          0          0          0         
L-03             NBP01-17         NBP01-16         133.02     0.015      0          0          0          0         
232.1            NBP01-16         NBP01-15         92.35      0.015      0          0          0          0         
L-02             NBP01-16         NBP01-15         92.35      0.015      0          0          0          0         
234.1            NBP01-15         NBP01-14.1       133.42     0.015      0          0          0          0         
L-01             NBP01-15         NBP01-14.1       133.42     0.015      0          0          0          0         
LBP01-13         NBP01-14         NBP01-13         105.09     0.015      0          0          0          0         
LBP01-12         NBP01-13         NBP01-12         177.63     0.015      0          0          0          0         
LBP01-11         NBP01-12         NBP01-11         78.43      0.015      0          0          0          0         
LBP01-10         NBP01-11         NBP01-10         48.72      0.015      0          0          0          0         
LBP01-09         NBP01-10         NBP01-09         255.8      0.015      0.21       0          0          0         
LBP01-08         NBP01-09         NBP01-08         333.47     0.015      0          0          0          0         
LBP01-07         NBP01-08         NBP01-07         183.5      0.015      0          0          0          0         
LBP01-06         NBP01-07         NBP01-06         161.9      0.015      0          0          0          0         
LBP01-05         NBP01-06         NBP01-05         379.86     0.015      0          0          0          0         
LBP01-04         NBP01-05         NBP01-04         278.06     0.015      0          0          0          0         
LBP01-03         NBP01-04         NBP01-03         288.37     0.015      0          0          0          0         
LBP15-00         NBP15-01         NBP01-27         164.19     0.015      0          0.7        0          0         
LBP02-03         NBP02-04         NBP02-03         259.21     0.015      0          0          0          0         
LBP02-02         NBP02-03         NBP02-02         23.83      0.015      0          0          0          0         
LBP02-01         NBP02-02         NBP02-01         232.83     0.015      0          0          0          0         
LBP02-00         NBP02-01         NBP01-04         59.65      0.015      0          0.56       0          0         
LBP03-03         NBP03-04         NBP03-03         31.23      0.015      0          0          0          0         
LBP03-02         NBP03-03         NBP03-02         112.07     0.015      0.25       0          0          0         
LBP03-01         NBP03-02         NBP03-01         54.18      0.015      0          0          0          0         
LBP03-00         NBP03-01         NBP01-05         167.62     0.015      0          0.36       0          0         
LBP05-02         NBP05-03         NBP05-02         263.04     0.015      0          0.05       0          0         
LBP05-01         NBP05-02         NBP05-01         228.48     0.015      0          0.03       0          0         
LBP05-00         NBP05-01         NBP04-04         213.23     0.015      0          0.5        0          0         
LBP04-03         NBP04-04         NBP04-03         79.03      0.015      0          0          0          0         
LBP04-02         NBP04-03         NBP04-02         128.86     0.015      0          0          0          0         
LBP04-01         NBP04-02         NBP04-01         32.99      0.015      0          0          0          0         
LBP04-00         NBP04-01         NBP01-06         237.23     0.015      0          0.53       0          0         
LBP04-12         NBP04-13         NBP04-12         74.13      0.015      0          0          0          0         
LBP04-11         NBP04-12         NBP04-11         105.44     0.015      0          0.67       0          0         
LBP04-10         NBP04-11         NBP04-10         169.03     0.015      0          0.31       0          0         
LBP04-09         NBP04-10         NBP04-09         143.07     0.015      0          0          0          0         
LBP04-08         NBP04-09         NBP04-08         248.49     0.015      0          0          0          0         
LBP04-07         NBP04-08         NBP04-07         40.24      0.015      0          0          0          0         
LBP04-06         NBP04-07         NBP04-06         52.02      0.015      0          0          0          0         
LBP04-05         NBP04-06         NBP04-05         174.28     0.015      0          0          0          0         
LBP04-04         NBP04-05         NBP04-04         75.02      0.015      0          0          0          0         
LBP06-11         NBP06-12         NBP06-11         188.34     0.015      0          0          0          0         
LBP06-09         NBP06-11         NBP06-09         209.93     0.015      0          0.3        0          0         
LBP06-07         NBP06-08         NBP06-07         99.79      0.015      0          0          0          0         
LBP06-06         NBP06-07         NBP06-06         143.2      0.015      0          0          0          0         
LBP06-05         NBP06-06         NBP06-05         316.6      0.015      0          0.45       0          0         
LBP06-04.1       NBP06-05         NBP06-04         121.96     0.015      0.45       0          0          0         
LBP06-04.2       NBP06-05         NBP06-04         124.32     0.015      0.45       0.02       0          0         
LBP06-03.1       NBP06-04         NBP06-03         108.07     0.015      0          0          0          0         
LBP06-03.2       NBP06-04         NBP06-03         107.97     0.015      0.02       0          0          0         
LBP06-02         NBP06-03         NBP06-02         100.61     0.015      0          0          0          0         
LBP06-01         NBP06-02         NBP06-01         79.71      0.015      0          0.1        0          0         
LBP06-00.1       NBP06-01         NBP01-08         268.55     0.015      0.1        0          0          0         
LBP06-00.2       NBP06-01         NBP01-08         270.98     0.015      0          0          0          0         
LBP08-05         NBP08-06         NBP08-03         56.93      0.015      0          0.09       0          0         
LBP08-02         NBP08-03         NBP08-02         122.42     0.015      0.09       0          0          0         
LBP08-00         NBP08-01         NBP06-05         208.52     0.015      0          0          0          0         
LBP07-01         NBP07-02         NBP07-01         88.47      0.015      0          0          0          0         
LBP07-00         NBP07-01         NBP06-08         80.28      0.015      0          0.55       0          0         
LBP09-01         NBP09-02         NBP09-01         237.49     0.015      0          0          0          0         
LBP09-00         NBP09-01         NBP01-09         147.64     0.015      0          0.84       0          0         
LBP10-00         NBP10-01         NBP09-01         90.7       0.015      0          0.9        0          0         
LBP12-01         NBP12-02         NBP12-01         108.44     0.015      0          0          0          0         
LBP12-00         NBP12-01         NBP11-06         109.32     0.015      0          0.04       0          0         
LBP11-05.1       NBP11-06         NBP11-05.1       60.72      0.015      0          0          0          0         
LBP11-04         NBP11-05         NBP11-04         53.05      0.015      0          0          0          0         
LBP11-03         NBP11-04         NBP11-03         67.6       0.015      0          0          0          0         
LBP11-02         NBP11-03         NBP11-02         77.58      0.015      0          0          0          0         
LBP11-01         NBP11-02         NBP11-01         58.17      0.015      0          0          0          0         
LBP11-00         NBP11-01         NBP01-13         77.7       0.015      0          0.93       0          0         
LBP11-06         NBP11-07         NBP11-06         97.29      0.015      0          0          0          0         
LBP13-13         NBP13-14         NBP13-13         44.48      0.015      0          0          0          0         
LBP13-12         NBP13-13         NBP13-12         43.33      0.015      0          0.2        0          0         
LBP13-11         NBP13-12         NBP13-11         86.55      0.015      0          0.3        0          0         
LBP13-10         NBP13-11         NBP13-10         102.04     0.015      0          0          0          0         
LBP13-09         NBP13-10         NBP13-09         97.77      0.015      0          0          0          0         
LBP13-08         NBP13-09         NBP13-08         58.53      0.015      0          0          0          0         
LBP13-07         NBP13-08         NBP13-07         84.16      0.015      0          0.01       0          0         
LBP13-06         NBP13-07         NBP13-06         198.18     0.015      0          0          0          0         
LBP13-05         NBP13-06         NBP13-05         71.17      0.015      0          0          0          0         
LBP13-04         NBP13-05         NBP13-04         107.57     0.015      0          0          0          0         
LBP13-03         NBP13-04         NBP13-03         65.86      0.015      0          0          0          0         
LBP13-02         NBP13-03         NBP13-02         115.15     0.015      0          0.43       0          0         
LBP13-01.2       NBP13-02         NBP13-01.2       51.12      0.015      0          0          0          0         
LBP13-00         NBP13-01         NBP01-22         158.97     0.015      0          0          0          0         
LBP14-00         NBP14-01         NBP13-11         54.73      0.015      0          0.48       0          0         
403.1            NBP01-21         NBP01-20.2       63.46      0.015      0          0.33       0          0         
p-06             NBP01-21         NBP01-20.2       63.46      0.015      0          0.33       0          0         
LBP08-01         NBP08-02         NBP08-01         48.86      0.015      0          1.4        0          0         
LBP08-03         NBP08-04         NBP08-03         56.67      0.015      0          0          0          0         
LBP06-08         NBP06-09         NBP06-08         52.79      0.015      0          0          0          0         
SCpump_in        NBP01-20         Str_Sc           135        0.015      0.23       5.23       0          0         
LNH01-28         NNH01-29         NNH01-28         64.67      0.015      0          0.34       0          0         
LNH01-27         NNH01-28         NNH01-27         107.71     0.015      0          0.32       0          0         
LNH01-26         NNH01-27         NNH01-26         15.73      0.015      0          0          0          0         
LNH01-25         NNH01-26         NNH01-25         81.12      0.015      0.1        0.55       0          0         
LNH01-24         NNH01-25         NNH01-24         23.61      0.015      0          0.01       0          0         
LNH01-23         NNH01-24         NNH01-23         116.5      0.015      0          0          0          0         
LNH01-22         NNH01-23         NNH01-22         137.5      0.015      0          0          0          0         
LNH01-21         NNH01-22         NNH01-21         66.8       0.015      0          0          0          0         
LNH01-20         NNH01-21         NNH01-20         23.84      0.015      0          0          0          0         
LNH01-19         NNH01-20         NNH01-19         126.69     0.015      0          0          0          0         
LNH01-18         NNH01-19         NNH01-18         48.06      0.015      0          0          0          0         
LNH01-17         NNH01-18         NNH01-17         51.99      0.015      0          0.5        0          0         
LNH01-16         NNH01-17         NNH01-16         115.33     0.015      0          0          0          0         
LNH01-15         NNH01-16         NNH01-15         125.61     0.015      0          0          0          0         
LNH01-14         NNH01-15         NNH01-14         82.17      0.015      0          0          0          0         
LNH01-13         NNH01-14         NNH01-13         113.06     0.015      0          0          0          0         
LNH01-12         NNH01-13         NNH01-12         56.66      0.015      0          0.34       0          0         
543.1            NNH01-12         NNH01-11         92.71      0.015      0          0          0          0         
q-01             NNH01-12         NNH01-11         92.71      0.015      0          0          0          0         
545.1            NNH01-11         NNH01-10         165.05     0.015      0          0          0          0         
q-02             NNH01-11         NNH01-10         165.05     0.015      0          0          0          0         
547.1            NNH01-10         NNH01-09         62.6       0.015      0          0          0          0         
q-03             NNH01-10         NNH01-09         62.6       0.015      0          0          0          0         
549.1            NNH01-09         NNH01-07.1       62         0.015      0          0.01       0          0         
q-04             NNH01-09         NNH01-07.1       62         0.015      0          0.01       0          0         
553.1            NNH01-07         NNH01-06         130.75     0.015      0          0          0          0         
q-06             NNH01-07         NNH01-06         130.75     0.015      0          0          0          0         
LNH01-05.1       NNH01-06         NNH01-05.1       14.45      0.015      0          0          0          0         
LNH01-04         NNH01-05         NNH01-04         124.88     0.015      0          0          0          0         
LNH01-03         NNH01-04         NNH01-03         84.18      0.015      0          0          0          0         
LNH01-02         NNH01-03         NNH01-02         46.34      0.015      0          0          0          0         
LNH01-01         NNH01-02         NNH01-01         226.3      0.015      0          0          0          0         
LNH02-01         NNH02-02         NNH02-01         52.61      0.015      0          0.74       0          0         
LNH02-00         NNH02-01         NNH01-02         96.42      0.015      0          0.5        0          0         
LNH03-02         NNH03-03         NNH03-02         56.98      0.015      0          0.5        0          0         
LNH03-01         NNH03-02         NNH03-01         60.07      0.015      0          0          0          0         
LNH03-00         NNH03-01         NNH02-01         53.34      0.015      0          0          0          0         
LNH04-03         NNH04-04         NNH04-03         111.79     0.015      0          0.23       0          0         
LNH04-02         NNH04-03         NNH04-02         41.09      0.015      0          0.15       0          0         
LNH04-01         NNH04-02         NNH04-01         90.16      0.015      0          0          0          0         
LNH04-00         NNH04-01         NNH02-01         65.39      0.015      0          0.36       0          0         
LNH05-02         NNH05-03         NNH05-02         113.83     0.015      0          0.47       0          0         
LNH05-01         NNH05-02         NNH05-01         48.08      0.015      0          0          0          0         
LNH05-00         NNH05-01         NNH01-09         91.84      0.015      0          2.29       0          0         
LNH06-00         NNH06-01         NNH01-10         71.89      0.015      0          0.99       0          0         
LNH07-13         NNH07-14         NNH07-13         37.02      0.015      0          1.14       0          0         
LNH07-12         NNH07-13         NNH07-12         97.34      0.015      0          0          0          0         
LNH07-11         NNH07-12         NNH07-11         108.88     0.015      0          0.26       0          0         
LNH07-10         NNH07-11         NNH07-10         54.91      0.015      0          0          0          0         
LNH07-09         NNH07-10         NNH07-09         47.72      0.015      0.05       0.7        0          0         
LNH07-08         NNH07-09         NNH07-08         110.68     0.015      0          0          0          0         
LNH07-07         NNH07-08         NNH07-07         19         0.015      0          0          0          0         
LNH07-06         NNH07-07         NNH07-06         64.42      0.015      0          0          0          0         
LNH07-05         NNH07-06         NNH07-05         27.06      0.015      0          0          0          0         
LNH07-04         NNH07-05         NNH07-04         95.19      0.015      0          0          0          0         
LNH07-03         NNH07-04         NNH07-03         128.83     0.015      0          0          0          0         
LNH07-02         NNH07-03         NNH07-02         167.63     0.015      0          0          0          0         
LNH07-01         NNH07-02         NNH07-01         108.44     0.015      0          0          0          0         
LNH07-00         NNH07-01         NNH01-12         111.32     0.015      0          0          0          0         
LNH11-03         NNH11-04         NNH11-03         36.41      0.015      0          0.17       0          0         
LNH11-02         NNH11-03         NNH11-02         108.24     0.015      0          0          0          0         
LNH11-01         NNH11-02         NNH11-01         113.1      0.015      0          0.22       0          0         
LNH11-00         NNH11-01         NNH10-01         100.26     0.015      0          0.3        0          0         
LNH10-00         NNH10-01         NNH07-09         31.69      0.015      0          0          0          0         
LNH10-03         NNH10-04         NNH10-03         111.37     0.015      0          0          0          0         
LNH10-02         NNH10-03         NNH10-02         73.49      0.015      0          0.56       0          0         
LNH10-01         NNH10-02         NNH10-01         74.61      0.015      0          0.3        0          0         
LNH08-02         NNH08-03         NNH08-02         36.89      0.015      0          0.14       0          0         
LNH08-01         NNH08-02         NNH08-01         56.94      0.015      0          0.32       0          0         
LNH08-00         NNH08-01         NNH07-01         84.8       0.015      0          0.65       0          0         
LNH09-00         NNH09-01         NNH07-03         35.97      0.015      0          0.5        0          0         
LNH12-01         NNH12-02         NNH12-01         79.56      0.015      0          0          0          0         
LNH12-00         NNH12-01         NNH01-16         82.44      0.015      0          1.25       0          0         
LNH13-00         NNH13-01         NNH01-18         120.01     0.015      0          0.6        0          0         
LNH14-01         NNH14-02         NNH14-01         72.26      0.015      0          0.05       0          0         
LNH14-00         NNH14-01         NNH01-19         104.36     0.015      0          0.5        0          0         
LNH15-06         NNH15-07         NNH15-06         193.8      0.015      0          0          0          0         
LNH15-05         NNH15-06         NNH15-05         141.15     0.015      0          0.01       0          0         
LNH15-04         NNH15-05         NNH15-04         69.58      0.015      0          0.05       0          0         
LNH15-03         NNH15-04         NNH15-03         96.16      0.015      0          0.02       0          0         
LNH15-02         NNH15-03         NNH15-02         105.15     0.015      0          0.01       0          0         
LNH15-01         NNH15-02         NNH15-01         13.31      0.015      0          0.02       0          0         
LNH15-00         NNH15-01         NNH01-20         64.32      0.015      0          0.4        0          0         
LNH16-00         NNH16-01         NNH15-05         68.93      0.015      0          0.03       0          0         
LNH18-06         NNH18-07         NNH18-06         109.45     0.015      0          0          0          0         
LNH18-05         NNH18-06         NNH18-05         139.09     0.015      0.03       0.1        0          0         
LNH18-04         NNH18-05         NNH18-04         54.05      0.015      0          0.02       0          0         
LNH18-03         NNH18-04         NNH18-03         89.55      0.015      0          0.05       0          0         
LNH18-02         NNH18-03         NNH18-02         68.18      0.015      0          0          0          0         
LNH18-01         NNH18-02         NNH18-01         94.84      0.015      0.03       0.08       0          0         
LNH18-00         NNH18-01         NNH01-22         120.64     0.015      0          0.07       0          0         
LNH17-01         NNH17-02         NNH17-01         129.4      0.015      0          0.32       0          0         
LNH17-00         NNH17-01         NNH01-21         105.33     0.015      0          0.1        0          0         
LBC01-1821       NBC01-19         NBC01-18.2       63.92      0.015      0.46       0          0          0         
LBC01-1822       NBC01-19         NBC01-18.2       63.92      0.015      0          0          0          0         
LBC01-1823       NBC01-19         NBC01-18.2       63.92      0.015      0.06       0          0          0         
LBC01-16         NBC01-17         NBC01-16         40         0.018      0          0.07       0          0         
LBPC-42.1        NBC01-16         NBC01-15         100        0.018      0          0          0          0         
LBPC-42.2        NBC01-16         NBC01-15         100        0.018      1.91       1.9        0          0         
LBPC-42.3        NBC01-16         NBC01-15         100        0.018      0          0          0          0         
LBPC-41.1        NBC01-15         NBC01-14         100        0.018      0          0          0          0         
LBPC-41.2        NBC01-15         NBC01-14         100        0.018      1.9        1.9        0          0         
LBPC-41.3        NBC01-15         NBC01-14         100        0.018      0          0          0          0         
LBPC-40.1        NBC01-14         NBC01-13         100        0.018      0          0          0          0         
LBPC-40.2        NBC01-14         NBC01-13         100        0.018      1.9        1.9        0          0         
LBPC-40.3        NBC01-14         NBC01-13         100        0.018      0          0          0          0         
LBPC-39.21       NBC01-13         NBC01-12         45         0.018      0          0          0          0         
LBPC-39.22       NBC01-13         NBC01-12         45         0.018      1.9        1.99       0          0         
LBPC-39.11       NBC01-12         NBC01-11         55         0.018      0          0          0          0         
LBPC-39.12       NBC01-12         NBC01-11         55         0.018      1.99       2.1        0          0         
LBPC-38.21       NBC01-11         NBC01-10         60         0.018      0          0          0          0         
LBPC-38.22       NBC01-11         NBC01-10         60         0.018      2.1        2.1        0          0         
LBPC-38.11       NBC01-10         NBC01-09         40         0.018      0          0          0          0         
LBPC-38.12       NBC01-10         NBC01-09         40         0.018      2.1        2.1        0          0         
LBPC-37.31       NBC01-09         NBC01-08         50         0.018      0          0          0          0         
LBPC-37.32       NBC01-09         NBC01-08         50         0.018      2.1        2.1        0          0         
LBPC-37.21       NBC01-08         NBC01-07         40         0.018      0          0          0          0         
LBPC-37.22       NBC01-08         NBC01-07         40         0.018      2.1        2.1        0          0         
LBPC-37.11       NBC01-07         NBC01-06         10         0.018      0          0          0          0         
LBPC-37.12       NBC01-07         NBC01-06         10         0.018      2.1        2.1        0          0         
LBPC-36.1        NBC01-06         NBC01-05         100        0.018      0          0          0          0         
LBPC-36.2        NBC01-06         NBC01-05         100        0.018      2.1        2.1        0          0         
LBPC-35.31       NBC01-05         NBC01-04         30         0.018      0          0          0          0         
LBPC-35.32       NBC01-05         NBC01-04         30         0.018      2.1        2.1        0          0         
LBPC-35.11       NBC01-04         NBC01-02         70         0.018      0          0          0          0         
LBPC-35.12       NBC01-04         NBC01-02         70         0.018      2.1        2.1        0          0         
LBPC-34.1        NBC01-02         NBC01-02.1       100        0.018      0          0          0          0         
LBPC-34.2        NBC01-02         NBC01-02.1       100        0.018      2.1        2.05       0          0         
LBPC-325         NBC01-01         NBC01-00         50         0.018      0.08       0          0          0         
LBC04-01         NBC04-02         NBC04-01         75.25      0.015      0          0          0          0         
LBC04-00         NBC04-01         NBC01-13         66.78      0.015      0.02       1.84       0          0         
LBC03-04         NBC03-05         NBC03-04         152.04     0.015      0          0          0          0         
LBC03-03         NBC03-04         NBC03-03         85.33      0.015      0          0.04       0          0         
LBC03-02         NBC03-03         NBC03-02         109.68     0.015      0          0          0          0         
LBC03-01         NBC03-02         NBC03-01         48.26      0.015      0          0.06       0          0         
LBC03-00         NBC03-01         NBC01-04         64.93      0.015      0          1.62       0          0         
LBC02-00         NBC02-01         NBC01-02         100.77     0.015      0          1.58       0          0         
LBC09-00         NBC09-00         NBPC-18          86.09      0.015      0          0          0          0         
LBC10-00         NBC10-00         NBPC-14          7.03       0.015      0          4.83       0          0         
LBC11-02         NBC11-03         NBC11-02         30.43      0.015      0          0.1        0          0         
LBC11-00         NBC11-02         NBPC-12          35.85      0.015      0          4.19       0          0         
LSR01-10         NSR01-11         NSR01-10         62.31      0.015      0          0          0          0         
LSR01-09         NSR01-10         NSR01-09         50.39      0.015      0.12       0          0          0         
LSR01-08         NSR01-09         NSR01-08         54.64      0.015      0          0.2        0          0         
LSR01-07         NSR01-08         NSR01-07         97.19      0.015      0          0.16       0          0         
LSR01-06         NSR01-07         NSR01-06         137.53     0.015      0          0          0          0         
LSR01-05         NSR01-06         NSR01-05         57.53      0.015      0          0.04       0          0         
LSR01-03         NSR01-05         NSR01-03         95.62      0.015      0          1.99       0          0         
LSR01-02         NSR01-03         NSR01-02         68.02      0.015      1.99       0          0          0         
LSR01-01         NSR01-02         NSR01-01         65.34      0.015      0          0          0          0         
LSR01-00         NSR01-01         NSR01-00         32.92      0.015      0          0          0          0         
LSR02-04         NSR02-05         NSR02-04         87.63      0.015      0          0          0          0         
LSR02-03         NSR02-04         NSR02-03         61.41      0.015      0          1.5        0          0         
LSR02-02         NSR02-03         NSR02-02         105.56     0.015      0          0.79       0          0         
InStr_Sr         NSR02-02         Str_SR           10         0.015      0.79       3.1        0          0         
LSR03-00         NSR01-03         NSR02-03         48.73      0.015      0          0.3        0          0         
LBC01-2001       NBC01-20.1       NBC01-20         208.21     0.015      0          0          0          0         
LBC01-2002       NBC01-20.1       NBC01-20         208.21     0.015      0.5        0.18       0          0         
LBC01-19.1       NBC01-20         NBC01-19         181.37     0.015      0.18       0          0          0         
LBC01-19.2       NBC01-20         NBC01-19         181.37     0.015      0.18       0          0          0         
LBC01-19.3       NBC01-20         NBC01-19         181.37     0.015      0.18       0.06       0          0         
LBC12-00         NBC12-00         Temp             6.27       0.015      0          5.44       0          0         
LBP01-01         NBP01-03         NBP01-01         104.9      0.015      0          0          0          0         
LBP01-00         NBP01-01         Str_BP           126.2      0.015      0          0.3        0          0         
LYS01-18         NYS01-19         NYS01-18         51.21      0.015      0          0          0          0         
LYS01-17         NYS01-18         NYS01-17         43.82      0.015      0          0          0          0         
LYS01-16         NYS01-17         NYS01-16         43.82      0.015      0          0          0          0         
LYS01-15         NYS01-16         NYS01-15         87.76      0.015      0          0          0          0         
LYS01-14         NYS01-15         NYS01-14         87.17      0.015      0          0          0          0         
LYS01-13         NYS01-14         NYS01-13         99.98      0.015      0          1.2        0          0         
LYS01-12         NYS01-13         NYS01-12         79.64      0.015      0          0          0          0         
LYS01-11         NYS01-12         NYS01-11         90         0.015      0          0          0          0         
LYS01-10         NYS01-11         NYS01-10         81.86      0.015      0          0          0          0         
LYS01-09         NYS01-10         NYS01-09         100.31     0.015      0          0          0          0         
LYS01-08         NYS01-09         NYS01-08         60.95      0.015      0          0          0          0         
LYS01-07.1       NYS01-08         NYS01-07         91.56      0.015      0          0          0          0         
LYS01-07.2       NYS01-08         NYS01-07         91.56      0.015      0          0          0          0         
LYS01-06.1       NYS01-07         NYS01-06         63.34      0.015      0          0          0          0         
LYS01-06.2       NYS01-07         NYS01-06         63.34      0.015      0          0          0          0         
LYS01-05.1       NYS01-06         NYS01-05         77.47      0.015      0          0          0          0         
LYS01-05.2       NYS01-06         NYS01-05         77.47      0.015      0          0          0          0         
LYS01-04.1       NYS01-05         NYS01-04         73.21      0.015      0          0          0          0         
LYS01-04.2       NYS01-05         NYS01-04         73.21      0.015      0          0          0          0         
LYS01-03.1       NYS01-04         NYS01-03.1       31.52      0.015      0          0.66       0          0         
LYS01-02         NYS01-03         NYS01-02         43.78      0.015      0          0.53       0          0         
LYS02-05         NYS02-06         NYS02-05         138.9      0.015      0          0.02       0          0         
LYS02-04         NYS02-05         NYS02-04         141.32     0.015      0          0.13       0          0         
LYS02-03         NYS02-04         NYS02-03         85.66      0.015      0          0.4        0          0         
LYS02-02         NYS02-03         NYS02-02         58.81      0.015      0          0          0          0         
LYS02-01         NYS02-02         NYS02-01         35.69      0.015      0          1.98       0          0         
LYS02-00         NYS02-01         NYS02-00         44.53      0.015      0          0.62       0          0         
LYS03-00         NYS03-01         NYS02-01         71.66      0.015      0          2.33       0          0         
LYS05-10         NYS05-11         NYS05-10         32.64      0.015      0          0.05       0          0         
LYS05-09         NYS05-10         NYS05-09         73.57      0.015      0          0.06       0          0         
LYS05-08         NYS05-09         NYS05-08         94.3       0.015      0          0          0          0         
LYS05-07         NYS05-08         NYS05-07         78.3       0.015      0          1.42       0          0         
LYS05-06         NYS05-07         NYS05-06         74.04      0.015      0          0          0          0         
LYS05-05         NYS05-06         NYS05-05         86.26      0.015      0          0.04       0          0         
LYS05-04         NYS05-05         NYS05-04         28.69      0.015      0          0.07       0          0         
LYS05-03         NYS05-04         NYS05-03         48.3       0.015      0          0          0          0         
LYS05-02         NYS05-03         NYS05-02         47.14      0.015      0          0          0          0         
LYS05-00         NYS05-02         NYS05-00         41.84      0.015      0          1.27       0          0         
LYS06-00         NYS06-01         NYS01-04         388.78     0.015      0          0.76       0          0         
LYS07-01         NYS07-02         NYS07-01         81.08      0.015      0          0.41       0          0         
LYS07-00         NYS07-01         NYS01-06         89.45      0.015      0          0.66       0          0         
LYS08-11         NYS08-12         NYS08-11         168.84     0.015      0          0          0          0         
LYS08-10         NYS08-11         NYS08-10         65.18      0.015      0.2        0.2        0          0         
LYS08-09         NYS08-10         NYS08-09         39.27      0.015      0          0          0          0         
LYS08-08         NYS08-09         NYS08-08         180.37     0.015      0          0.2        0          0         
LYS08-07         NYS08-08         NYS08-07         111.82     0.015      0          0          0          0         
LYS08-06         NYS08-07         NYS08-06         76.91      0.015      0          0          0          0         
LYS08-05         NYS08-06         NYS08-05         77.54      0.015      0          0          0          0         
LYS08-04         NYS08-05         NYS08-04         170.53     0.015      0          0          0          0         
LYS08-03         NYS08-04         NYS08-03         164.81     0.015      0          0          0          0         
LYS08-02         NYS08-03         NYS08-02         44.49      0.015      0          0          0          0         
LYS08-00         NYS08-02         NYS01-08         19.27      0.015      0          0.37       0          0         
LYS09-01         NYS09-02         NYS09-01         48.72      0.015      0          0.05       0          0         
LYS09-00         NYS09-01         NYS08-10         60.85      0.015      0          0.35       0          0         
LYS10-01         NYS10-02         NYS10-01         107.71     0.015      0          0.09       0          0         
LYS10-00         NYS10-01         NYS08-10         155.51     0.015      0          0.35       0          0         
LYS11-03         NYS11-04         NYS11-03         38.44      0.015      0          0.17       0          0         
LYS11-02         NYS11-03         NYS11-02         90.79      0.015      0          0.04       0          0         
LYS12-05         NYS12-06         NYS12-05         67.48      0.015      0          0.35       0          0         
LYS12-04         NYS12-05         NYS12-04         99.21      0.015      0          0          0          0         
LYS12-03         NYS12-04         NYS12-03         101        0.015      0          0          0          0         
LYS12-02         NYS12-03         NYS12-02         94.27      0.015      0          0          0          0         
LYS12-01         NYS12-02         NYS12-01         66.15      0.015      0          0.8        0          0         
LYS12-00         NYS12-01         NYS01-13         104.48     0.015      0          0.5        0          0         
LYS13-07         NYS13-08         NYS13-07         96.98      0.015      0          0          0          0         
LYS13-06         NYS13-07         NYS13-06         107.3      0.015      0          0.01       0          0         
LYS13-05         NYS13-06         NYS13-05         78.4       0.015      0          0.03       0          0         
LYS13-04         NYS13-05         NYS13-04         117.37     0.015      0          0.02       0          0         
LYS13-03         NYS13-04         NYS13-03         138.84     0.015      0          0          0          0         
LYS13-02         NYS13-03         NYS13-02         136.08     0.015      0          0.02       0          0         
LYS13-01         NYS13-02         NYS13-01         100.83     0.015      0          0          0          0         
LYS13-00.1       NYS13-01         NYS01-08         17.38      0.015      0.03       0.22       0          0         
LYS13-00.2       NYS13-01         NYS01-08         17.61      0.015      0          0.22       0          0         
LYS14-02         NYS14-03         NYS14-02         127.47     0.015      0          0.02       0          0         
LYS14-01         NYS14-02         NYS14-01         78.31      0.015      0          0.01       0          0         
LYS14-00         NYS14-01         NYS13-01         35.36      0.015      0          0.02       0          0         
LYS18-01         NYS18-02         NYS18-01         75.48      0.015      0          0.3        0          0         
LYS18-00         NYS18-01         NYS15-03         78.43      0.015      0          0          0          0         
LYS15-02         NYS15-03         NYS15-02         58.25      0.015      0          0          0          0         
LYS15-01         NYS15-02         NYS15-01         53.72      0.015      0          0          0          0         
LYS15-00         NYS15-01         NYS01-08         56.23      0.015      0          0.67       0          0         
LYS16-03         NYS16-04         NYS16-03         85.65      0.015      0          0.01       0          0         
LYS16-02         NYS16-03         NYS16-02         61.95      0.015      0          0.04       0          0         
LYS16-01         NYS16-02         NYS16-01         31.35      0.015      0          0.01       0          0         
LYS16-00         NYS16-01         NYS01-17         47.73      0.015      0          0.2        0          0         
LYS17-00         NYS17-01         NYS01-18         117.75     0.015      0          0.2        0          0         
LYS95-00         NYS90            NYS95-00         48.3       0.015      0.3        0          0          0         
LYS95-01         NYS95-00         NYS95-01         13.2       0.015      0          0.3        0          0         
LYS96-2.2        NYS95-01         NYS96-2.2        73.8       0.015      0.3        0          0          0         
LYS92-01         NYS01-02         NYS01-02.8       103.7      0.015      0          0          0          0         
LYS92-00         NYS92-01         NYS92-01.1       80         0.015      0          0          0          0         
LYS93-00         NYS05-00         NYS92-01         43.1       0.015      0          0.5        0          0         
LYS94-00         NYS05-00         NYS99-06         125.2      0.015      0.16       0          0          0         
LYS99-00         NYS02-00         NNH01-00         57.38      0.015      0          0.33       0          0         
LYS99-01         NYS99-02         NYS02-00         164.92     0.015      0          0          0          0         
LYS11-01         NYS11-02         NYS11-01         80.36      0.015      0          0.01       0          0         
LYS11-00         NYS11-01         NYS01-12         132.54     0.015      0          0.5        0          0         
LYS05-001        NYS01-03.1       NYS05-00         394.51     0.015      0          0.16       0          0         
LSC01-21         NSC01-22         NSC01-21         36.77      0.015      0          0          0          0         
LSC01-20         NSC01-21         NSC01-20         27.55      0.015      0          0          0          0         
LSC01-19         NSC01-20         NSC01-19         134.53     0.015      0          0          0          0         
LSC01-18         NSC01-19         NSC01-18         106.28     0.015      0          0          0          0         
LSC01-17         NSC01-18         NSC01-17         23.67      0.015      0          0          0          0         
LSC01-16         NSC01-17         NSC01-16         70.33      0.015      0          0          0          0         
LSC01-15         NSC01-16         NSC01-15         93         0.015      0          1.22       0          0         
LSC01-14         NSC01-15         NSC01-14         44.66      0.015      0          0          0          0         
LSC01-13         NSC01-14         NSC01-13         93.46      0.015      0          0          0          0         
LSC01-12         NSC01-13         NSC01-12         114.72     0.015      0          0          0          0         
LSC01-11         NSC01-12         NSC01-11         48.94      0.015      0          0          0          0         
LSC01-10         NSC01-11         NSC01-11.1       18.5       0.015      0          0          0          0         
LSC01-09         NSC01-10         NSC01-09         48.19      0.015      0          0          0          0         
LSC01-08         NSC01-09         NSC01-08         136.82     0.015      0          0          0          0         
LSC01-07.1       NSC01-08         NSC01-07.1       108.95     0.015      0          0          0          0         
LSC01-06         NSC01-07         NSC01-06         159.05     0.015      0          0          0          0         
LSC01-05         NSC01-06         NSC01-05         13.59      0.015      0          0          0          0         
LSC01-04         NSC01-05         NSC01-04         55.9       0.015      0          0          0          0         
LSC01-03         NSC01-04         NSC01-03         173.13     0.015      0          0          0          0         
LSC01-02         NSC01-03         NSC01-02         61.4       0.015      0          0          0          0         
LSC01-01         NSC01-02         NSC01-01         64.76      0.015      0          0.54       0          0         
LSC01-00         NSC01-01         NYS01-02         139.8      0.015      0.54       0.78       0          0         
LSC02-03         NSC02-04         NSC02-03         79.51      0.015      0          0.03       0          0         
LSC02-02         NSC02-03         NSC02-02         26.8       0.015      0.16       0          0          0         
LSC02-01         NSC02-02         NSC02-01         24.89      0.015      0          0          0          0         
LSC02-00         NSC02-01         NSC01-06         136.45     0.015      0          0          0          0         
LSC03-00         NSC03-01         NSC02-03         100.84     0.015      0          0          0          0         
LSC04-00         NSC04-01         NSC02-03         66.49      0.015      0          0.16       0          0         
LSC05-07         NSC05-08         NSC05-07         53         0.015      0          0          0          0         
LSC05-06         NSC05-07         NSC05-06         95.4       0.015      0          0          0          0         
LSC05-05         NSC05-06         NSC05-05         55.74      0.015      0          0          0          0         
LSC05-04         NSC05-05         NSC05-04         77.69      0.015      0          0.2        0          0         
LSC05-03         NSC05-04         NSC05-03         57.87      0.015      0          0          0          0         
LSC05-02         NSC05-03         NSC05-02         69.04      0.015      0.2        0          0          0         
LSC05-01         NSC05-02         NSC05-01         72.13      0.015      0          0          0          0         
LSC05-00         NSC05-01         NSC01-06         59.9       0.015      0          0.59       0          0         
LSC06-04         NSC06-05         NSC06-04         24.27      0.015      0          0          0          0         
LSC06-03         NSC06-04         NSC06-03         57.76      0.015      0          0          0          0         
LSC06-02         NSC06-03         NSC06-02         169.8      0.015      0          0          0          0         
LSC06-01         NSC06-02         NSC06-01         221.65     0.015      0          0          0          0         
LSC06-00         NSC06-01         NSC01-07         59.32      0.015      0          0          0          0         
LSC08-02         NSC08-03         NSC08-02         87.99      0.015      0          0          0          0         
LSC08-01         NSC08-02         NSC08-01         205.52     0.015      0          0          0          0         
LSC08-00         NSC08-01         NSC06-04         88         0.015      0          0.18       0          0         
LSC07-03         NSC07-04         NSC07-03         54.98      0.015      0          0          0          0         
LSC07-02         NSC07-03         NSC07-02         99.8       0.015      0          0          0          0         
LSC07-01         NSC07-02         NSC07-01         77.61      0.015      0          0          0          0         
LSC07-00         NSC07-01         NSC06-01         146.78     0.015      0.1        0.47       0          0         
LSC09-01         NSC09-02         NSC09-01         30.73      0.015      0          0          0          0         
LSC09-00         NSC09-01         NSC07-02         28.24      0.015      0.01       0.9        0          0         
LSC10-16         NSC10-17         NSC10-16         41.66      0.015      0          0          0          0         
LSC10-15         NSC10-16         NSC10-15         140.41     0.015      0          0.3        0          0         
LSC10-14         NSC10-15         NSC10-14         114.72     0.015      0          0          0          0         
LSC10-13         NSC10-14         NSC10-13         144.44     0.015      0          0          0          0         
LSC10-12         NSC10-13         NSC10-12         86.9       0.015      0          0.5        0          0         
LSC10-11         NSC10-12         NSC10-11         80.6       0.015      0          0          0          0         
LSC10-10         NSC10-11         NSC10-10         52.4       0.015      0          0          0          0         
LSC10-09         NSC10-10         NSC10-09         91.83      0.015      0          0          0          0         
LSC10-08         NSC10-09         NSC10-08         56.61      0.015      0          0          0          0         
LSC10-07         NSC10-08         NSC10-07         127.08     0.015      0          0          0          0         
LSC10-06         NSC10-07         NSC10-06         63.51      0.015      0          0          0          0         
LSC10-05         NSC10-06         NSC10-05         200.49     0.015      0.02       0          0          0         
LSC10-04         NSC10-05         NSC10-04         93.65      0.015      0          0          0          0         
LSC10-03         NSC10-04         NSC10-03         54.42      0.015      0          0          0          0         
LSC10-02         NSC10-03         NSC10-02         19.67      0.015      0          0          0          0         
LSC10-01         NSC10-02         NSC10-01         128.57     0.015      0          0          0          0         
LSC10-00         NSC10-01         NSC10-00         143.02     0.015      0          0          0          0         
LSC11-04         NSC11-05         NSC11-04         47.44      0.015      0          0.07       0          0         
LSC11-03         NSC11-04         NSC11-03         76.74      0.015      0          0          0          0         
LSC11-02         NSC11-03         NSC11-02         52.71      0.015      0          0          0          0         
LSC11-01         NSC11-02         NSC11-01         241.43     0.015      0          0          0          0         
LSC11-00         NSC11-01         NSC10-04         75.08      0.015      0          0.42       0          0         
LSC12-04         NSC12-05         NSC12-04         45         0.015      0          0          0          0         
LSC12-03.1       NSC12-04         NSC12-03         160.74     0.015      0          0.01       0          0         
LSC12-03.2       NSC12-04         NSC12-03         160.74     0.015      0          0.01       0          0         
LSC12-02.1       NSC12-03         NSC12-02         117.25     0.015      0          0.1        0          0         
LSC12-02.2       NSC12-03         NSC12-02         117.25     0.015      0          0.1        0          0         
LSC12-01.1       NSC12-02         NSC12-01         100.21     0.015      0          0          0          0         
LSC12-01.2       NSC12-02         NSC12-01         100.21     0.015      0          0          0          0         
LSC12-00         NSC12-01         NSC10-06         196.49     0.015      0          0.02       0          0         
LSC13-02         NSC13-03         NSC13-02         231.78     0.015      0          0.08       0          0         
LSC13-01         NSC13-02         NSC13-01         43.97      0.015      0          0.2        0          0         
LSC13-00         NSC13-01         NSC12-01         168.99     0.015      0          0.32       0          0         
LSC14-00         NSC14-01         NSC10-08         61.73      0.015      0          0          0          0         
LSC15-08.1       NSC10-00         NSC15-08         84.2       0.015      0          1.36       0          0         
LSC15-08.2       NSC10-00         NSC15-08         84.2       0.015      0          1.36       0          0         
LSC15-07.1       NSC15-08         NSC15-07         77.36      0.015      1.74       0.4        0          0         
LSC15-07.2       NSC15-08         NSC15-07         77.4       0.015      1.34       0.05       0          0         
LSC15-05         NSC15-06         NSC15-05         34.6       0.015      0          0          0          0         
LSC15-04         NSC15-05         NSC15-04         121.89     0.015      0          0          0          0         
LSC15-03         NSC15-04         NSC15-03         85.6       0.015      0          0          0          0         
LSC15-02         NSC15-03         NSC15-02         171.4      0.015      0          0          0          0         
LSC15-01         NSC15-02         NSC15-01         263        0.015      0          0          0          0         
LSC15-00.3       NSC15-01         NSC15-00.3       107.3      0.015      0          0          0          0         
LSC16-04         NSC16-05         NSC16-04         51.08      0.015      0          0.02       0          0         
LSC16-03         NSC16-04         NSC16-03         72.32      0.015      0          0.13       0          0         
LSC16-02         NSC16-03         NSC16-02         111.73     0.015      0          0          0          0         
LSC16-01         NSC16-02         NTP00            32.33      0.015      0          8.03       0          0         
LSC16-00         NSC16-01         NSC15-06         113.16     0.015      0          0.58       0          0         
LSC17-00         NSC17-01         NSC16-03         306.39     0.015      0          0          0          0         
LSC18-02         NSC18-03         NSC18-02         53.3       0.015      0          0          0          0         
LSC18-01         NSC18-02         NSC18-01         51.24      0.015      0.01       0.03       0          0         
LSC18-00         NSC18-01         NSC15-07         59.6       0.015      0          0.28       0          0         
LSC19-11         NSC19-12         NSC19-11         130.13     0.015      0          0          0          0         
LSC19-10         NSC19-11         NSC19-10         72.9       0.015      0          0          0          0         
LSC19-09         NSC19-10         NSC19-09         84.56      0.015      0          0.35       0          0         
LSC19-08         NSC19-09         NSC19-08         52.49      0.015      0          0          0          0         
LSC19-07         NSC19-08         NSC19-07         36.67      0.015      0          0.29       0          0         
LSC19-06         NSC19-07         NSC19-06         104.22     0.015      0          0          0          0         
LSC19-05         NSC19-06         NSC19-05         71.31      0.015      0          0          0          0         
1248.1           NSC19-05         NSC19-04         79.14      0.015      0          0          0          0         
a-01             NSC19-05         NSC19-04         79.14      0.014      0          0          0          0         
1250.1           NSC19-04         NSC19-03         49.72      0.015      0          0          0          0         
a-02             NSC19-04         NSC19-03         49.72      0.014      0          0          0          0         
1252.1           NSC19-03         NSC19-02         50.9       0.015      0          0          0          0         
a-03             NSC19-03         NSC19-02         50.9       0.014      0          0          0          0         
1254.1           NSC19-02         NSC19-01         31.22      0.015      0          0          0          0         
a-04             NSC19-02         NSC19-01         31.22      0.015      0          0          0          0         
1255.1           NSC19-01         NSC15-08         46.57      0.015      0          1.24       0          0         
a-05             NSC19-01         NSC15-08         46.57      0.015      0          1.24       0          0         
LSC21-05         NSC21-06         NSC21-05         61.64      0.015      0          0.05       0          0         
LSC21-04         NSC21-05         NSC21-04         41.23      0.015      0          0.1        0          0         
LSC21-03         NSC21-04         NSC21-03         116.34     0.015      0          0.1        0          0         
LSC21-02         NSC21-03         NSC21-02         44.13      0.015      0          0          0          0         
LSC21-01         NSC21-02         NSC21-01         46.91      0.015      0          0          0          0         
LSC21-00         NSC21-01         NSC20-09         26.44      0.015      0          0.05       0          0         
LSC20-08         NSC20-09         NSC20-08         73.1       0.015      0          0          0          0         
LSC20-07         NSC20-08         NSC20-07         151.48     0.015      0          0          0          0         
LSC20-06         NSC20-07         NSC20-06         108.6      0.015      0          0          0          0         
LSC20-05         NSC20-06         NSC20-05         60.59      0.015      0          0          0          0         
LSC20-04         NSC20-05         NSC20-04         105.92     0.015      0          0          0          0         
LSC20-00         NSC20-01         NSC19-09         112.34     0.015      0          0.05       0          0         
LSC20-03         NSC20-04         NSC20-03         55.46      0.015      0          0          0          0         
LSC20-02         NSC20-03         NSC20-02         140.13     0.015      0          0          0          0         
LSC20-01         NSC20-02         NSC20-01         89.08      0.015      0          0          0          0         
LSC20-09         NSC20-10         NSC20-09         254.27     0.015      0          0          0          0         
LSC22-00         NSC22-01         NSC21-01         98.05      0.015      0          0          0          0         
LSC23-03         NSC23-04         NSC23-03         72.85      0.015      0          0          0          0         
LSC23-02         NSC23-03         NSC23-02         87.1       0.015      0          0          0          0         
LSC23-01         NSC23-02         NSC23-01         64.3       0.015      0          0          0          0         
LSC23-00         NSC23-01         NSC20-04         110.11     0.015      0          0.17       0          0         
LBC13-04         NBC13-05         NBC13-04         87.94      0.015      0          0.1        0          0         
LBC13-03         NBC13-04         NBC13-03         127.56     0.015      0.06       0          0          0         
LBC14-05         NBC13-04         NBC14-05         102.54     0.015      0          0          0          0         
LBC14-04         NBC14-05         NBC14-04         180.1      0.015      0          0          0          0         
LBC14-03         NBC14-04         NBC14-03         80.13      0.015      0          0          0          0         
LBC14-02         NBC14-03         NBC14-02         67.89      0.015      0          0          0          0         
LBC14-01         NBC14-02         NBC14-01         22.13      0.015      0          0.23       0          0         
LBC14-00         NBC14-01         NBPC-08          90.77      0.015      0          0.05       0          0         
LBC16-06         NBC16-07         NBC16-06         112.71     0.015      0          0          0          0         
LBC16-05         NBC16-06         NBC16-05         110.86     0.015      0          0          0          0         
LBC16-04         NBC16-05         NBC16-04         154.62     0.015      0          0          0          0         
LBC16-03         NBC16-04         NBC16-03         211.07     0.015      0          0          0          0         
LBC16-02         NBC16-03         NBC16-02         10.21      0.015      0          0          0          0         
LBC16-00         NBC16-02         NBC16-00         111.7      0.015      0          0.2        0          0         
LBC17-00         NBC17-01         NBC16-03         60.59      0.015      0          0.4        0          0         
LBC18-00         NBC18-01         NBC16-00         136.4      0.015      0          0.55       0          0         
LBC13-02         NBC13-03         NBC13-02         38.48      0.015      0          0          0          0         
LBC13-01         NBC13-02         NBC13-01         55.98      0.015      0          0.2        0          0         
LBC13-00         NBC13-01         NBPC-15          72.19      0.015      0          1.64       0          0         
LBC16-000        NBC16-00         NBPC-06          10.32      0.015      0          0.3        0          0         
LBC15-01         NBC15-02         NBC15-01         24.72      0.015      0          0.15       0          0         
LBC15-00         NBC15-01         NBC14-02         22.66      0.015      0          0.35       0          0         
LBPC-31          NBPC-32          NBPC-31          100        0.022      0          0          0          0         
LBPC-30          NBPC-31          NBPC-30          100        0.022      0          0          0          0         
LBPC-29          NBPC-30          NBPC-29          100        0.022      0          0          0          0         
LBPC-28          NBPC-29          NBPC-28          100        0.022      0          0          0          0         
LBPC-27          NBPC-28          NBPC-27          100        0.022      0          0          0          0         
LBPC-26          NBPC-27          NBPC-26          100        0.022      0          0          0          0         
LBPC-25          NBPC-26          NBPC-25          100        0.015      0          0          0          0         
LBPC-24          NBPC-25          NBPC-24          100        0.015      0          0          0          0         
LBPC-23          NBPC-24          NBPC-23          100        0.015      0          0          0          0         
LBPC-22          NBPC-23          NBPC-22          100        0.015      0          0          0          0         
LBPC-21          NBPC-22          NBPC-21          100        0.015      0          0          0          0         
LBPC-20          NBPC-21          NBPC-20          100        0.015      0          0          0          0         
LBPC-19          NBPC-20          NBPC-19          100        0.015      0          0          0          0         
LBPC-18          NBPC-19          NBPC-18          100        0.015      0          0          0          0         
LBPC-17          NBPC-18          NBPC-17          100        0.015      0          0          0          0         
LBPC-16          NBPC-17          Temp             100        0.015      0          0          0          0         
LBPC-15          Temp             NBPC-15          100        0.015      0          0          0          0         
LBPC-14          NBPC-15          NBPC-14          100        0.015      0          0          0          0         
LBPC-13          NBPC-14          NBPC-13          100        0.015      0          0          0          0         
LBPC-12          NBPC-13          NBPC-12          100        0.015      0          0          0          0         
LBPC-11          NBPC-12          NBPC-11          100        0.015      0          0          0          0         
LBPC-10          NBPC-11          NBPC-10          100        0.015      0          0          0          0         
LBPC-08          NBPC-09          NBPC-08          100        0.015      0.34       0          0          0         
LBPC-07          NBPC-08          NBPC-07          100        0.015      0          0          0          0         
LBPC-06          NBPC-07          NBPC-06          100        0.015      0          0          0          0         
LBPC-05          NBPC-06          NBPC-05          100        0.015      0          0          0          0         
LBPC-04          NBPC-05          NBPC-04          100        0.015      0          0          0          0         
LBPC-03          NBPC-04          NBPC-03          100        0.015      0          0          0          0         
LBPC-02          NBPC-03          NBPC-02          100        0.015      0          0          0          0         
LBPC-01          NBPC-02          NBPC-01          100        0.015      0          0          0          0         
LBPC-00          NBPC-01          NBPC-00          100        0.015      0          0          0          0         
LBPC-09          NBPC-10          NBPC-09          100        0.015      0          0.34       0          0         
LBPC-32          NBC01-00         NBPC-32          50         0.022      0          0          0          0         
LBPC-33.1        NBC01-02.1       NBC01-01         100        0.018      0          0          0          0         
LBPC-33.2        NBC01-02.1       NBC01-01         100        0.018      2.05       2.06       0          0         
LBC01-17         NBC01-17.1       NBC01-17         69.7       0.015      0          0          0          0         
LBC01-1801       NBC01-18.1       NBC01-17.1       121.67     0.015      0          0          0          0         
LBC01-1802       NBC01-18.1       NBC01-17.1       121.67     0.015      0          0          0          0         
LBC01-1803       NBC01-18.1       NBC01-17.1       121.67     0.015      0          0          0          0         
LBC01-1811       NBC01-18.2       NBC01-18.1       91.03      0.015      0          0          0          0         
LBC01-1812       NBC01-18.2       NBC01-18.1       91.03      0.015      0          0          0          0         
LBC01-2011       NNH01-00         NBC01-20.1       18         0.015      0          0          0          0         
LBC01-2012       NNH01-00         NBC01-20.1       18         0.015      0.5        0.5        0          0         
LYS90            NYS01-02         NYS01-02.6       103.7      0.015      0          0          0          0         
LYS91-01         NYS01-02         NYS01-02.7       103.7      0.015      0.3        0          0          0         
LYS01-03         NYS01-03.1       NYS01-03         11         0.015      0.66       0          0          0         
LYS01-03.2       NYS01-04         NYS01-03         42.52      0.015      0          0          0          0         
LH7              NH7              NH7.1            73.6       0.015      0          0.22       0          0         
LYS99-02         NYS99-03         NYS99-02         39.9       0.015      0          0          0          0         
LYS99-03         NYS99-04         NYS99-03         17.3       0.015      0          0          0          0         
LYS99-04         NYS99-05         NYS99-04         28.7       0.015      0          0          0          0         
LYS99-05         NYS99-06         NYS99-05         16.8       0.015      0          0          0          0         
LNH01-00         NNH01-01.1       NNH01-00         86.7       0.015      0          0.37       0          0         
LNH01-00.1       NNH01-01.2       NNH01-01.1       15.5       0.015      0          0          0          0         
LNH01-00.2       NNH01-01.3       NNH01-01.2       14.6       0.015      0          0          0          0         
LNH01-05         NNH01-05.1       NNH01-05         14.45      0.015      0          0          0          0         
LNH01-05.2       NNH01-06         NNH01-05         28.9       0.015      0          0          0          0         
1485.1           NNH01-07.1       NNH01-07         51         0.015      0          0          0          0         
q-05             NNH01-07.1       NNH01-07         51         0.015      0          0          0          0         
LSC15-0001       NSC15-00.1       NBC01-19         116.5      0.015      0          0.11       0          0         
LSC15-0002       NSC15-00.1       NBC01-19         116.5      0.015      0          0.11       0          0         
LSC15-00.1       NSC15-00.2       NSC15-00.1       56.1       0.015      0.3        0          0          0         
LSC15-00.2       NSC15-00.3       NSC15-00.2       87.1       0.015      0          0          0          0         
LH1-02.1         NSC15-00.2       NH1-02           64.54      0.015      0.15       0          0          0         
LH1-01           NH1-02           NH1-01           16.4       0.015      0          0          0          0         
LH1-00           NH1-01           NBC01-17         320        0.015      0          0.03       0          0         
LSC01-07         NSC01-07.1       NSC01-07         40         0.015      0          0          0          0         
LSC01-10.1       NSC01-11.1       NSC01-10         28.05      0.015      0          0          0          0         
LBP01-14         NBP01-14.1       NBP01-14         38         0.015      0          0          0          0         
LBP01-20         NBP01-20.1       NBP01-20         18         0.015      0          0          0          0         
1508.1           NBP01-20.2       NBP01-20.1       71.4       0.015      0          0          0          0         
p-07             NBP01-20.2       NBP01-20.1       71.4       0.015      0          0          0          0         
1510.1           NBP01-22.1       NBP01-22         28.4       0.015      0          0.33       0          0         
p-04             NBP01-22.1       NBP01-22         28.4       0.015      0          0.33       0          0         
LBP11-05         NBP11-05.1       NBP11-05         70         0.015      0          0          0          0         
LBP13-01         NBP13-01.1       NBP13-01         80         0.015      0          0          0          0         
LBP13-01.1       NBP13-01.2       NBP13-01.1       64.6       0.015      0          0          0          0         
NHL_015          NHM_016          NHM_006          38.22      0.015      52.3       0.45       0          0         
SDCL_010         SDCM_010         SDCM_011         103.25     0.015      0          0          0          0         
SDCL_009         SDCM_009         SDCM_010         44.64      0.015      0          0          0          0         
SDCL_008         SDCM_008         SDCM_009         89.46      0.015      0          0          0          0         
SDCL_007         SDCM_007         SDCM_008         57.14      0.015      0          0          0          0         
SDCL_039         SDCM_039         SDCM_039_1       66.56      0.015      0          0          0          0         
SDCL_031         SDCM_031         SDCM_032         95.73      0.015      0          0          0          0         
SDCL_034         SDCM_034         SDCM_035         138.42     0.015      0          0          0          0         
SDCL_027         SDCM_027         SDCM_028         168.58     0.015      0          0          0          0         
SDCL_033         SDCM_033         SDCM_034         101.49     0.015      0          0          0          0         
SDCL_032         SDCM_032         SDCM_033         50.99      0.015      0          0          0          0         
SDCL_038         SDCM_038         SDCM_039         91.51      0.015      0          0          0          0         
SDCL_037         SDCM_037         SDCM_038         253.19     0.015      0          0          0          0         
SDCL_036         SDCM_036         SDCM_037         139.36     0.015      0          0          0          0         
SDCL_035         SDCM_035         SDCM_036         158.49     0.015      0          0          0          0         
SDCL_003         SDCM_003         SDCM_004         35.29      0.015      0          0          0          0         
NHL_032          NHM_034          NHM_022          41.4       0.015      0          0          0          0         
SDCL_025         SDCM_025         SDCM_026         14.43      0.015      0          0          0          0         
SDCL_024         SDCM_024         SDCM_025         172.51     0.015      0          0          0          0         
SDCL_023         SDCM_023         SDCM_024         61.93      0.015      0          0          0          0         
SDCL_026         SDCM_026         SDCM_026_1       125.55     0.015      0          0          0          0         
SDCL_026_1       SDCM_026_1       SDCM_027         30.27      0.015      0          0          0          0         
SDCL_017         SDCM_017         SDCM_017_1       160.52     0.015      0.12       0          0          0         
SDCL_013         SDCM_013         SDCM_014         58.5       0.015      0          0          0          0         
SDCL_011         SDCM_011         SDCM_012         150.91     0.015      0          0          0          0         
SDCL_016         SDCM_016         SDCM_016_1       73.58      0.015      0          0          0          0         
SDCL_012         SDCM_012         SDCM_013         59.49      0.015      0          0          0          0         
SDCL_016_1       SDCM_016_1       SDCM_017         10.5       0.015      0          0.12       0          0         
NHL_006          NHM_006          NHM_010          120.41     0.015      0          0.005      0          0         
NHL_029          NHM_010          NHM_034          160.64     0.015      0.005      0          0          0         
NHL_020          NHM_022          SDCM_001         76.86      0.015      0          0          0          0         
SDCL_001         SDCM_001         SDCM_003         133.68     0.015      0          0          0          0         
SDCL_006         SDCM_006         SDCM_007         82.91      0.015      0          0          0          0         
SDCL_004         SDCM_004         SDCM_006         329.33     0.015      0.68       0          0          0         
SDCL_014         SDCM_014         SDCM_016         95.86      0.015      0          0          0          0         
SDCL_018         SDCM_017_1       SDCM_020         99.76      0.015      0          0          0          0         
SDCL_020         SDCM_020         SDCM_020_2       43.03      0.015      0          0          0          0         
SDCL_021         SDCM_020_2       SDCM_023         143.68     0.015      0          0          0          0         
SDCL_028         SDCM_028         SDCM_031         311.36     0.015      0          0          0          0         
SDCL_040         SDCM_039_1       NBPC-09          92.73      0.015      0          0          0          0         
LH7.1            NH7.1            NBC01-20.1       320        0.015      0.22       0.17       0          0         
LYS90.1          NYS01-02.1       NYS90            71.7       0.015      0          0          0          0         
LYS92-00.1       NYS92-01.1       NYS90            71.7       0.015      0          0          0          0         
LYS90.2          NYS01-02.2       NYS01-02.1       80         0.015      0          0          0          0         
LYS90.3          NYS01-02.3       NYS01-02.2       120        0.015      0          0          0          0         
LYS92-01.1       NYS0102.5        NYS92-01         120        0.015      0          0          0          0         
LYS90.4          NYS01-02.6       NYS01-02.3       160        0.015      0          0          0          0         
LYS91-01.2       NYS01-02.7       NYS01-02.4       160        0.015      0          0          0          0         
LYS92-01.2       NYS01-02.8       NYS0102.5        160        0.015      0          0          0          0         
L1976            NH7.1            NYS01-02.1       1          0.015      0          0          0          0         
L1978            NYS01-02.1       NYS92-01.1       1          0.015      0          0          0          0         
L1979            NH7              NYS01-02.2       1          0.015      0          0          0          0         
L1981            NYS01-02.2       NYS92-01         1          0.015      0          0          0          0         
L1982            NYS01-02.4       NYS01-02.3       1          0.015      0          0          0          0         
L1983            NYS01-02.4       NYS0102.5        1          0.015      0          0          0          0         
L1984            NYS01-02.7       NYS01-02.6       1          0.015      0          0          0          0         
L1985            NYS01-02.7       NYS01-02.8       1          0.015      0          0          0          0         
LYS96-1.2        NYS95-01         NYS96-1.2        73.8       0.015      0          0          0          0         
LYS96-1          NYS96-1.2        NNH01-00         90.3       0.015      0          0          0          0         
LYS96-2          NYS96-2.2        NNH01-00         90.3       0.015      0          0.5        0          0         
TP00             ooooo            NTP00            240        0.015      0          1.5        0          0         
TP01             NTP00            NTP01            537.7      0.015      0          0          0          0         
TP03             1                NBPC-27          36         0.015      0          0.5        0          0         
TP02             NTP01            1                537.5      0.015      0          0          0          0         
L1997            NNH01-06         Str_SP           450        0.015      0          5.03       0          0         
L1999            NSC01-07         NBP01-25         410        0.015      0          0          0          0         
L2004            MH2020           NBC01-20         100        0.015      0          0.52       0          0         
L2005            NSC01-01         MH2019           200        0.015      0          0          0          0         
L2007            NBP01-20.1       NBP01-19         30.96      0.015      0          0.07       0          0         
L2008            NYS01-08         NYS01-02         400        0.015      0          0.27       0          0         
L2009            MH2019           MH2016           200        0.015      0          0          0          0         
L2010            MH2016           MH2018           200        0.015      0          0          0          0         
L2011            MH2018           MH2020           100        0.015      0          0          0          0         
LSC15-0611       NSC15-07         NSC15-06.1       33.8       0.015      0.4        0.35       0          0         
LSC15-0612       NSC15-07         NSC15-06.1       33.8       0.015      0.05       0          0          0         
1674.1           NSC15-06.1       NSC15-06         60.4       0.015      0          0          0          0         
aaaaa            NSC15-06.1       NSC15-06         60.4       0.014      0          0          0          0         
wwwww            NSC15-06         ooooo            10         0.015      0.35       5.19       0          0         
1                NNH01-01         NNH01-01.3       30         0.015      0          0          0          0         

[PUMPS]
;;Name           From Node        To Node          Pump Curve       Status   Sartup Shutoff 
;;-------------- ---------------- ---------------- ---------------- ------ -------- --------
PumpBP           Str_BP           NBPC-17          BPpump           ON       5.9      1.7     
PumpSC           Str_Sc           NBC01-17.1       SCpump           ON       8.2      3.7     
PumpSR           Str_SR           NBPC-21          SRpump           ON       4.1      0.8     
PumpSP           Str_SP           NBC01-00         SPpump           ON       9.5      4.2     

[XSECTIONS]
;;Link           Shape        Geom1            Geom2      Geom3      Geom4      Barrels    Culvert   
;;-------------- ------------ ---------------- ---------- ---------- ---------- ---------- ----------
LBP01-30         RECT_CLOSED  1.5              1.5        0          0          1                    
LBP01-29         RECT_CLOSED  1.5              1.5        0          0          1                    
LBP01-28         RECT_CLOSED  2                2.5        0          0          1                    
LBP01-27         RECT_CLOSED  2                2.5        0          0          1                    
LBP01-26         RECT_CLOSED  2                1.88       0          0          1                    
LBP01-25         RECT_CLOSED  2                1.88       0          0          1                    
216.1            RECT_CLOSED  2.1              2.1        0          0          1                    
p-01             RECT_CLOSED  2                3          0          0          1                    
218.1            RECT_CLOSED  2                2          0          0          1                    
p-02             RECT_CLOSED  2                3          0          0          1                    
220.1            RECT_CLOSED  2                2          0          0          1                    
p-03             RECT_CLOSED  2                3          0          0          1                    
222.1            RECT_CLOSED  2.2              2          0          0          2                    
p-05             RECT_CLOSED  2.2              3.5        0          0          1                    
226.1            RECT_CLOSED  2.6              2.1        0          0          2                    
L-05             RECT_CLOSED  2                2.5        0          0          1                    
228.1            RECT_CLOSED  2.6              2.1        0          0          2                    
L-04             RECT_CLOSED  2                2.5        0          0          1                    
230.1            RECT_CLOSED  2.6              2.1        0          0          2                    
L-03             RECT_CLOSED  2                2.5        0          0          1                    
232.1            RECT_CLOSED  2.6              2.1        0          0          2                    
L-02             RECT_CLOSED  2                2.5        0          0          1                    
234.1            RECT_CLOSED  2.6              2.1        0          0          2                    
L-01             RECT_CLOSED  2                2.5        0          0          1                    
LBP01-13         RECT_CLOSED  2.6              4.15       0          0          1                    
LBP01-12         RECT_CLOSED  2.6              4.35       0          0          1                    
LBP01-11         RECT_CLOSED  2.4              2          0          0          2                    
LBP01-10         RECT_CLOSED  2.4              2          0          0          2                    
LBP01-09         RECT_CLOSED  3                2.5        0          0          2                    
LBP01-08         RECT_CLOSED  3                2.5        0          0          2                    
LBP01-07         RECT_CLOSED  3                3.4        0          0          3                    
LBP01-06         RECT_CLOSED  3                3.4        0          0          3                    
LBP01-05         RECT_CLOSED  3                3          0          0          4                    
LBP01-04         RECT_CLOSED  3                3.3        0          0          4                    
LBP01-03         RECT_CLOSED  3                3.3        0          0          4                    
LBP15-00         RECT_CLOSED  1.5              1.6        0          0          1                    
LBP02-03         RECT_CLOSED  1.5              1.5        0          0          1                    
LBP02-02         RECT_CLOSED  2                3          0          0          1                    
LBP02-01         RECT_CLOSED  2                3          0          0          1                    
LBP02-00         RECT_CLOSED  2                3          0          0          1                    
LBP03-03         RECT_CLOSED  1.8              3          0          0          1                    
LBP03-02         CIRCULAR     1.5              0.0001     0          0          1                    
LBP03-01         RECT_CLOSED  1.5              2          0          0          1                    
LBP03-00         RECT_CLOSED  1.5              2          0          0          1                    
LBP05-02         RECT_CLOSED  1.5              1.5        0          0          1                    
LBP05-01         RECT_CLOSED  1.5              1.5        0          0          1                    
LBP05-00         RECT_CLOSED  2                3.5        0          0          1                    
LBP04-03         RECT_CLOSED  2.5              3.5        0          0          1                    
LBP04-02         RECT_CLOSED  2.5              3.7        0          0          1                    
LBP04-01         RECT_CLOSED  2.5              3.7        0          0          1                    
LBP04-00         RECT_CLOSED  2.5              3.8        0          0          1                    
LBP04-12         RECT_CLOSED  1.5              2          0          0          1                    
LBP04-11         RECT_CLOSED  1.5              2          0          0          1                    
LBP04-10         RECT_CLOSED  1.5              2          0          0          1                    
LBP04-09         RECT_CLOSED  2                2.5        0          0          1                    
LBP04-08         RECT_CLOSED  2                2.5        0          0          1                    
LBP04-07         RECT_CLOSED  2.5              3          0          0          1                    
LBP04-06         RECT_CLOSED  2                4          0          0          1                    
LBP04-05         RECT_CLOSED  2.5              3.5        0          0          1                    
LBP04-04         RECT_CLOSED  2.5              3.5        0          0          1                    
LBP06-11         RECT_CLOSED  2                2          0          0          1                    
LBP06-09         RECT_CLOSED  2.2              2.5        0          0          3                    
LBP06-07         RECT_CLOSED  2.5              2.5        0          0          3                    
LBP06-06         RECT_CLOSED  3.2              3.8        0          0          2                    
LBP06-05         RECT_CLOSED  2.5              2.5        0          0          3                    
LBP06-04.1       RECT_CLOSED  2.7              3.3        0          0          1                    
LBP06-04.2       RECT_CLOSED  2.7              3.7        0          0          1                    
LBP06-03.1       RECT_CLOSED  2.7              3.5        0          0          1                    
LBP06-03.2       RECT_CLOSED  2.7              3.2        0          0          1                    
LBP06-02         RECT_CLOSED  2.7              3.2        0          0          2                    
LBP06-01         RECT_CLOSED  2.5              3.2        0          0          2                    
LBP06-00.1       RECT_CLOSED  3                3          0          0          1                    
LBP06-00.2       RECT_CLOSED  3                3.4        0          0          1                    
LBP08-05         RECT_CLOSED  1.5              2          0          0          1                    
LBP08-02         RECT_CLOSED  1.5              2          0          0          1                    
LBP08-00         RECT_CLOSED  3.6              4.2        0          0          1                    
LBP07-01         RECT_CLOSED  1.8              2          0          0          1                    
LBP07-00         RECT_CLOSED  1.5              2          0          0          2                    
LBP09-01         RECT_CLOSED  1.5              1.5        0          0          1                    
LBP09-00         RECT_CLOSED  1.5              1.8        0          0          1                    
LBP10-00         CIRCULAR     0.9              0.0001     0          0          1                    
LBP12-01         RECT_CLOSED  1.2              1.2        0          0          1                    
LBP12-00         RECT_CLOSED  1.2              1.2        0          0          1                    
LBP11-05.1       RECT_CLOSED  1.5              1.55       0          0          1                    
LBP11-04         RECT_CLOSED  2.05             2          0          0          1                    
LBP11-03         RECT_CLOSED  2.05             2          0          0          1                    
LBP11-02         RECT_CLOSED  2.5              2.5        0          0          1                    
LBP11-01         RECT_CLOSED  2.5              2.5        0          0          1                    
LBP11-00         RECT_CLOSED  2.5              2.5        0          0          1                    
LBP11-06         RECT_CLOSED  1.5              1.55       0          0          1                    
LBP13-13         CIRCULAR     1                0.0001     0          0          1                    
LBP13-12         CIRCULAR     1                0.0001     0          0          1                    
LBP13-11         CIRCULAR     1.2              1.2        0          0          1                    
LBP13-10         RECT_CLOSED  1.5              1.5        0          0          1                    
LBP13-09         RECT_CLOSED  1.5              1.5        0          0          1                    
LBP13-08         RECT_CLOSED  1.5              1.5        0          0          1                    
LBP13-07         RECT_CLOSED  1.5              1.5        0          0          1                    
LBP13-06         RECT_CLOSED  2                2.5        0          0          1                    
LBP13-05         RECT_CLOSED  2                2.5        0          0          1                    
LBP13-04         RECT_CLOSED  2                2.5        0          0          1                    
LBP13-03         RECT_CLOSED  2                2.5        0          0          1                    
LBP13-02         RECT_CLOSED  2                2.5        0          0          1                    
LBP13-01.2       RECT_CLOSED  2                2.5        0          0          1                    
LBP13-00         RECT_CLOSED  2                2.5        0          0          1                    
LBP14-00         CIRCULAR     1                0.0001     0          0          1                    
403.1            RECT_CLOSED  2.2              2          0          0          2                    
p-06             RECT_CLOSED  2.2              3.5        0          0          1                    
LBP08-01         RECT_CLOSED  1.5              2          0          0          1                    
LBP08-03         CIRCULAR     1                0.0001     0          0          1                    
LBP06-08         RECT_CLOSED  2.5              2.5        0          0          3                    
SCpump_in        RECT_CLOSED  3.0              3.0        0          0          3                    
LNH01-28         CIRCULAR     0.8              0.0001     0          0          1                    
LNH01-27         CIRCULAR     1                0.0001     0          0          1                    
LNH01-26         CIRCULAR     1.2              0.0001     0          0          1                    
LNH01-25         RECT_CLOSED  1                1.5        0          0          1                    
LNH01-24         RECT_CLOSED  2                2          0          0          1                    
LNH01-23         RECT_CLOSED  2                2          0          0          1                    
LNH01-22         RECT_CLOSED  2                2          0          0          1                    
LNH01-21         RECT_CLOSED  2                2          0          0          1                    
LNH01-20         RECT_CLOSED  2                2          0          0          1                    
LNH01-19         RECT_CLOSED  2                3.5        0          0          1                    
LNH01-18         RECT_CLOSED  2                3.5        0          0          1                    
LNH01-17         RECT_CLOSED  2                3.5        0          0          1                    
LNH01-16         RECT_CLOSED  2.5              2.5        0          0          2                    
LNH01-15         RECT_CLOSED  2.5              2.5        0          0          2                    
LNH01-14         RECT_CLOSED  2.5              5          0          0          1                    
LNH01-13         RECT_CLOSED  2.5              5          0          0          1                    
LNH01-12         RECT_CLOSED  2.5              5          0          0          1                    
543.1            RECT_CLOSED  3.5              4          0          0          1                    
q-01             RECT_CLOSED  3.5              2.2        0          0          1                    
545.1            RECT_CLOSED  3.5              4          0          0          1                    
q-02             RECT_CLOSED  3.5              2.2        0          0          1                    
547.1            RECT_CLOSED  3.5              4          0          0          1                    
q-03             RECT_CLOSED  3.5              2.2        0          0          1                    
549.1            RECT_CLOSED  3.5              2.5        0          0          2                    
q-04             RECT_CLOSED  3.5              2.2        0          0          1                    
553.1            RECT_CLOSED  3.5              4.1        0          0          1                    
q-06             RECT_CLOSED  3.5              2.2        0          0          1                    
LNH01-05.1       RECT_CLOSED  3.5              2.6        0          0          1                    
LNH01-04         RECT_CLOSED  3.5              4.6        0          0          1                    
LNH01-03         RECT_CLOSED  3.5              4.6        0          0          1                    
LNH01-02         RECT_CLOSED  3                2.15       0          0          2                    
LNH01-01         RECT_CLOSED  3.5              4.6        0          0          1                    
LNH02-01         CIRCULAR     0.6              0.0001     0          0          1                    
LNH02-00         RECT_CLOSED  1.5              1.5        0          0          1                    
LNH03-02         RECT_CLOSED  1                1          0          0          1                    
LNH03-01         RECT_CLOSED  1.5              1.5        0          0          1                    
LNH03-00         RECT_CLOSED  1.5              1.5        0          0          1                    
LNH04-03         CIRCULAR     0.6              0.0001     0          0          1                    
LNH04-02         CIRCULAR     0.8              0.0001     0          0          1                    
LNH04-01         CIRCULAR     0.9              0.0001     0          0          1                    
LNH04-00         CIRCULAR     0.9              0.0001     0          0          1                    
LNH05-02         CIRCULAR     0.6              0.0001     0          0          1                    
LNH05-01         CIRCULAR     0.8              0.0001     0          0          1                    
LNH05-00         CIRCULAR     0.8              0.0001     0          0          1                    
LNH06-00         CIRCULAR     0.6              0.0001     0          0          1                    
LNH07-13         CIRCULAR     1                0.0001     0          0          1                    
LNH07-12         CIRCULAR     1.2              0.0001     0          0          1                    
LNH07-11         CIRCULAR     1.2              0.0001     0          0          1                    
LNH07-10         CIRCULAR     1.2              0.0001     0          0          1                    
LNH07-09         RECT_CLOSED  1.1              2          0          0          1                    
LNH07-08         RECT_CLOSED  1.5              2.8        0          0          1                    
LNH07-07         RECT_CLOSED  1.7              3.2        0          0          1                    
LNH07-06         RECT_CLOSED  1.7              3.2        0          0          1                    
LNH07-05         RECT_CLOSED  2                2          0          0          1                    
LNH07-04         RECT_CLOSED  2.2              2.7        0          0          1                    
LNH07-03         RECT_CLOSED  2.2              2.7        0          0          1                    
LNH07-02         RECT_CLOSED  1.7              3          0          0          1                    
LNH07-01         RECT_CLOSED  2.5              3          0          0          1                    
LNH07-00         RECT_CLOSED  2.5              3          0          0          1                    
LNH11-03         RECT_CLOSED  0.8              1.3        0          0          1                    
LNH11-02         CIRCULAR     1.2              0.0001     0          0          1                    
LNH11-01         CIRCULAR     1.2              0.0001     0          0          1                    
LNH11-00         CIRCULAR     1.2              0.0001     0          0          1                    
LNH10-00         RECT_CLOSED  1.5              2          0          0          1                    
LNH10-03         CIRCULAR     1.2              0.0001     0          0          1                    
LNH10-02         CIRCULAR     1.2              0.0001     0          0          1                    
LNH10-01         CIRCULAR     1.2              0.0001     0          0          1                    
LNH08-02         CIRCULAR     1                0.0001     0          0          1                    
LNH08-01         CIRCULAR     1.2              0.0001     0          0          1                    
LNH08-00         CIRCULAR     1.2              0.0001     0          0          1                    
LNH09-00         CIRCULAR     0.7              0.0001     0          0          1                    
LNH12-01         CIRCULAR     0.8              0.0001     0          0          1                    
LNH12-00         CIRCULAR     0.8              0.0001     0          0          1                    
LNH13-00         CIRCULAR     0.8              0.0001     0          0          1                    
LNH14-01         CIRCULAR     0.8              0.0001     0          0          1                    
LNH14-00         CIRCULAR     1                0.0001     0          0          1                    
LNH15-06         CIRCULAR     1.2              0.0001     0          0          1                    
LNH15-05         CIRCULAR     1.2              0.0001     0          0          1                    
LNH15-04         CIRCULAR     1.2              0.0001     0          0          1                    
LNH15-03         CIRCULAR     1.2              0.0001     0          0          1                    
LNH15-02         RECT_CLOSED  1.2              1.2        0          0          1                    
LNH15-01         RECT_CLOSED  1.2              1.2        0          0          1                    
LNH15-00         RECT_CLOSED  1.2              1.2        0          0          1                    
LNH16-00         CIRCULAR     1.2              0.0001     0          0          1                    
LNH18-06         CIRCULAR     1.2              0.0001     0          0          1                    
LNH18-05         CIRCULAR     1.2              0.0001     0          0          1                    
LNH18-04         CIRCULAR     1.2              0.0001     0          0          1                    
LNH18-03         CIRCULAR     1.2              0.0001     0          0          1                    
LNH18-02         CIRCULAR     1.2              0.0001     0          0          1                    
LNH18-01         CIRCULAR     1.2              0.0001     0          0          1                    
LNH18-00         CIRCULAR     1.2              0.0001     0          0          1                    
LNH17-01         CIRCULAR     0.8              0.0001     0          0          1                    
LNH17-00         CIRCULAR     1.2              0.0001     0          0          1                    
LBC01-1821       RECT_CLOSED  3                4.7        0          0          1                    
LBC01-1822       RECT_CLOSED  3                4.5        0          0          3                    
LBC01-1823       RECT_CLOSED  3.2              2.5        0          0          1                    
LBC01-16         RECT_CLOSED  4.5              18.7       0          0          1                    
LBPC-42.1        RECT_CLOSED  4.5              18.7       0          0          1                    
LBPC-42.2        RECT_CLOSED  2.4              2.9        0          0          2                    
LBPC-42.3        RECT_CLOSED  3                2          0          0          1                    
LBPC-41.1        RECT_CLOSED  4.5              18.7       0          0          1                    
LBPC-41.2        RECT_CLOSED  2.4              2.9        0          0          2                    
LBPC-41.3        RECT_CLOSED  3                2          0          0          1                    
LBPC-40.1        RECT_CLOSED  4.5              18.7       0          0          1                    
LBPC-40.2        RECT_CLOSED  2.4              2.9        0          0          2                    
LBPC-40.3        RECT_CLOSED  3                2          0          0          1                    
LBPC-39.21       RECT_CLOSED  4.5              18.7       0          0          1                    
LBPC-39.22       RECT_CLOSED  2.4              2.9        0          0          1                    
LBPC-39.11       RECT_CLOSED  4.5              18.7       0          0          1                    
LBPC-39.12       RECT_CLOSED  2.4              2.9        0          0          2                    
LBPC-38.21       RECT_CLOSED  4.5              18.7       0          0          1                    
LBPC-38.22       RECT_CLOSED  2.4              2.8        0          0          2                    
LBPC-38.11       RECT_CLOSED  4.5              18.7       0          0          1                    
LBPC-38.12       RECT_CLOSED  2.4              2.8        0          0          2                    
LBPC-37.31       RECT_CLOSED  4.5              18.7       0          0          1                    
LBPC-37.32       RECT_CLOSED  2.4              2.8        0          0          2                    
LBPC-37.21       RECT_CLOSED  4.5              18.7       0          0          1                    
LBPC-37.22       RECT_CLOSED  2.4              2.8        0          0          2                    
LBPC-37.11       RECT_CLOSED  4.5              18.7       0          0          1                    
LBPC-37.12       RECT_CLOSED  2.4              2.8        0          0          2                    
LBPC-36.1        RECT_CLOSED  4.5              18.7       0          0          1                    
LBPC-36.2        RECT_CLOSED  2.4              2.8        0          0          2                    
LBPC-35.31       RECT_CLOSED  4.5              18.7       0          0          1                    
LBPC-35.32       RECT_CLOSED  1.8              3.5        0          0          2                    
LBPC-35.11       RECT_CLOSED  4.5              18.7       0          0          3                    
LBPC-35.12       RECT_CLOSED  1.8              3.5        0          0          2                    
LBPC-34.1        RECT_CLOSED  4.5              18.7       0          0          1                    
LBPC-34.2        RECT_CLOSED  2.45             2.85       0          0          2                    
LBPC-325         RECT_CLOSED  4.5              18.7       0          0          1                    
LBC04-01         CIRCULAR     0.8              0.0001     0          0          1                    
LBC04-00         CIRCULAR     1                0.0001     0          0          1                    
LBC03-04         CIRCULAR     0.9              0.0001     0          0          1                    
LBC03-03         CIRCULAR     1                0.0001     0          0          1                    
LBC03-02         CIRCULAR     1                0.0001     0          0          1                    
LBC03-01         CIRCULAR     1                0.0001     0          0          1                    
LBC03-00         CIRCULAR     1                0.0001     0          0          1                    
LBC02-00         CIRCULAR     1                0.0001     0          0          1                    
LBC09-00         CIRCULAR     0.9              0.0001     0          0          1                    
LBC10-00         CIRCULAR     0.6              0.0001     0          0          1                    
LBC11-02         CIRCULAR     1.2              0.0001     0          0          1                    
LBC11-00         CIRCULAR     1                0.0001     0          0          1                    
LSR01-10         CIRCULAR     1                0.0001     0          0          1                    
LSR01-09         RECT_CLOSED  1.1              1          0          0          1                    
LSR01-08         RECT_CLOSED  1.1              1          0          0          1                    
LSR01-07         RECT_CLOSED  1.3              1          0          0          1                    
LSR01-06         RECT_CLOSED  1.5              2.5        0          0          1                    
LSR01-05         RECT_CLOSED  1.5              2.5        0          0          1                    
LSR01-03         RECT_CLOSED  1.5              2.5        0          0          1                    
LSR01-02         RECT_CLOSED  1.6              2          0          0          1                    
LSR01-01         RECT_CLOSED  1.3              2          0          0          1                    
LSR01-00         RECT_CLOSED  1.3              2          0          0          1                    
LSR02-04         RECT_CLOSED  1.5              1          0          0          1                    
LSR02-03         RECT_CLOSED  1.5              1          0          0          1                    
LSR02-02         RECT_CLOSED  3                2.5        0          0          1                    
InStr_Sr         RECT_CLOSED  3                2.5        0          0          1                    
LSR03-00         RECT_CLOSED  2.7              3          0          0          1                    
LBC01-2001       RECT_CLOSED  3.5              2          0          0          3                    
LBC01-2002       RECT_CLOSED  3                3.6        0          0          2                    
LBC01-19.1       RECT_CLOSED  3.2              4          0          0          2                    
LBC01-19.2       RECT_CLOSED  3.2              3.5        0          0          1                    
LBC01-19.3       RECT_CLOSED  3.2              2.5        0          0          1                    
LBC12-00         CIRCULAR     0.6              0.0001     0          0          1                    
LBP01-01         RECT_CLOSED  3                3.3        0          0          4                    
LBP01-00         RECT_CLOSED  3.0              3          0          0          4                    
LYS01-18         RECT_CLOSED  1.3              2          0          0          1                    
LYS01-17         RECT_CLOSED  1.3              2          0          0          1                    
LYS01-16         RECT_CLOSED  1.3              2          0          0          1                    
LYS01-15         RECT_CLOSED  1.3              2          0          0          1                    
LYS01-14         RECT_CLOSED  1.3              2          0          0          1                    
LYS01-13         RECT_CLOSED  1.3              2          0          0          1                    
LYS01-12         RECT_CLOSED  2.5              2.5        0          0          1                    
LYS01-11         RECT_CLOSED  2.5              2.5        0          0          1                    
LYS01-10         RECT_CLOSED  2.5              2.5        0          0          1                    
LYS01-09         RECT_CLOSED  2.5              2          0          0          2                    
LYS01-08         RECT_CLOSED  2.5              2          0          0          2                    
LYS01-07.1       RECT_CLOSED  2.5              1.4        0          0          2                    
LYS01-07.2       RECT_CLOSED  2.5              3.6        0          0          1                    
LYS01-06.1       RECT_CLOSED  2.5              1.4        0          0          2                    
LYS01-06.2       RECT_CLOSED  2.5              3.6        0          0          1                    
LYS01-05.1       RECT_CLOSED  2.5              1.4        0          0          2                    
LYS01-05.2       RECT_CLOSED  2.5              3.6        0          0          1                    
LYS01-04.1       RECT_CLOSED  2.5              1.4        0          0          2                    
LYS01-04.2       RECT_CLOSED  2.5              3.6        0          0          1                    
LYS01-03.1       RECT_CLOSED  2.5              3.5        0          0          1                    
LYS01-02         RECT_CLOSED  2.5              3.5        0          0          2                    
LYS02-05         CIRCULAR     0.8              0.0001     0          0          1                    
LYS02-04         CIRCULAR     0.8              0.0001     0          0          1                    
LYS02-03         CIRCULAR     0.8              0.0001     0          0          1                    
LYS02-02         CIRCULAR     1.2              0.0001     0          0          1                    
LYS02-01         CIRCULAR     1.2              0.0001     0          0          1                    
LYS02-00         CIRCULAR     1.2              0.0001     0          0          1                    
LYS03-00         CIRCULAR     0.9              0.0001     0          0          1                    
LYS05-10         CIRCULAR     0.8              0.0001     0          0          1                    
LYS05-09         CIRCULAR     0.8              0.0001     0          0          1                    
LYS05-08         CIRCULAR     0.8              0.0001     0          0          1                    
LYS05-07         CIRCULAR     0.8              0.0001     0          0          1                    
LYS05-06         CIRCULAR     0.8              0.0001     0          0          1                    
LYS05-05         CIRCULAR     0.8              0.0001     0          0          1                    
LYS05-04         CIRCULAR     0.9              0.0001     0          0          1                    
LYS05-03         CIRCULAR     1.1              0.0001     0          0          1                    
LYS05-02         CIRCULAR     1.1              0.0001     0          0          1                    
LYS05-00         CIRCULAR     1.2              0.0001     0          0          1                    
LYS06-00         CIRCULAR     1                0.0001     0          0          1                    
LYS07-01         CIRCULAR     0.8              0.0001     0          0          1                    
LYS07-00         RECT_CLOSED  1.2              1.2        0          0          1                    
LYS08-11         RECT_CLOSED  1.2              1.2        0          0          1                    
LYS08-10         RECT_CLOSED  1.2              1.2        0          0          1                    
LYS08-09         RECT_CLOSED  1.5              2          0          0          1                    
LYS08-08         RECT_CLOSED  1.5              2          0          0          1                    
LYS08-07         RECT_CLOSED  2                2          0          0          1                    
LYS08-06         RECT_CLOSED  2                2          0          0          1                    
LYS08-05         RECT_CLOSED  1.7              2          0          0          1                    
LYS08-04         RECT_CLOSED  2                2.3        0          0          1                    
LYS08-03         RECT_CLOSED  2                2.5        0          0          1                    
LYS08-02         RECT_CLOSED  2                2.5        0          0          1                    
LYS08-00         RECT_CLOSED  2                2.5        0          0          1                    
LYS09-01         CIRCULAR     0.8              0.0001     0          0          1                    
LYS09-00         CIRCULAR     0.8              0.0001     0          0          1                    
LYS10-01         CIRCULAR     0.8              0.0001     0          0          1                    
LYS10-00         CIRCULAR     0.8              0.0001     0          0          1                    
LYS11-03         CIRCULAR     1                0.0001     0          0          1                    
LYS11-02         CIRCULAR     1.5              0.0001     0          0          1                    
LYS12-05         CIRCULAR     0.9              0.0001     0          0          1                    
LYS12-04         RECT_CLOSED  1.2              1.8        0          0          1                    
LYS12-03         RECT_CLOSED  1.2              1.8        0          0          1                    
LYS12-02         RECT_CLOSED  1.2              1.8        0          0          1                    
LYS12-01         RECT_CLOSED  1.2              2          0          0          1                    
LYS12-00         RECT_CLOSED  2                2          0          0          1                    
LYS13-07         CIRCULAR     1                0.0001     0          0          1                    
LYS13-06         CIRCULAR     1                0.0001     0          0          1                    
LYS13-05         CIRCULAR     1                0.0001     0          0          1                    
LYS13-04         CIRCULAR     1                0.0001     0          0          1                    
LYS13-03         CIRCULAR     1                0.0001     0          0          1                    
LYS13-02         CIRCULAR     1                0.0001     0          0          1                    
LYS13-01         CIRCULAR     1                0.0001     0          0          1                    
LYS13-00.1       CIRCULAR     1.2              0.0001     0          0          1                    
LYS13-00.2       CIRCULAR     1.2              0.0001     0          0          1                    
LYS14-02         CIRCULAR     0.6              0.0001     0          0          1                    
LYS14-01         CIRCULAR     0.6              0.0001     0          0          1                    
LYS14-00         CIRCULAR     0.6              0.0001     0          0          1                    
LYS18-01         CIRCULAR     0.9              0.0001     0          0          1                    
LYS18-00         CIRCULAR     1.2              0.0001     0          0          1                    
LYS15-02         CIRCULAR     1.2              0.0001     0          0          1                    
LYS15-01         CIRCULAR     1.2              0.0001     0          0          1                    
LYS15-00         CIRCULAR     1.2              0.0001     0          0          1                    
LYS16-03         CIRCULAR     0.8              0.0001     0          0          1                    
LYS16-02         CIRCULAR     0.9              0.0001     0          0          1                    
LYS16-01         CIRCULAR     0.9              0.0001     0          0          1                    
LYS16-00         CIRCULAR     0.9              0.0001     0          0          1                    
LYS17-00         CIRCULAR     0.9              0.0001     0          0          1                    
LYS95-00         RECT_CLOSED  3.5              2          0          0          2                    
LYS95-01         RECT_CLOSED  3.5              2          0          0          2                    
LYS96-2.2        RECT_CLOSED  3.2              3.8        0          0          1                    
LYS92-01         RECT_CLOSED  3.5              2          0          0          1                    
LYS92-00         RECT_CLOSED  3.2              3.8        0          0          1                    
LYS93-00         RECT_CLOSED  3                3          0          0          1                    
LYS94-00         RECT_CLOSED  3                3          0          0          1                    
LYS99-00         RECT_CLOSED  3                2          0          0          1                    
LYS99-01         RECT_CLOSED  3                2          0          0          1                    
LYS11-01         CIRCULAR     1.5              0.0001     0          0          1                    
LYS11-00         CIRCULAR     1.5              0.0001     0          0          1                    
LYS05-001        RECT_CLOSED  3                3          0          0          1                    
LSC01-21         RECT_CLOSED  1.5              1.5        0          0          1                    
LSC01-20         RECT_CLOSED  2                2.5        0          0          1                    
LSC01-19         RECT_CLOSED  2                2.5        0          0          1                    
LSC01-18         RECT_CLOSED  2                2.5        0          0          1                    
LSC01-17         RECT_CLOSED  2                2.5        0          0          1                    
LSC01-16         RECT_CLOSED  2                2.5        0          0          1                    
LSC01-15         RECT_CLOSED  2                2.5        0          0          1                    
LSC01-14         RECT_CLOSED  2.5              3          0          0          1                    
LSC01-13         RECT_CLOSED  2.5              3          0          0          1                    
LSC01-12         RECT_CLOSED  2.5              3          0          0          1                    
LSC01-11         RECT_CLOSED  2.5              3          0          0          1                    
LSC01-10         RECT_CLOSED  2.5              2.5        0          0          2                    
LSC01-09         RECT_CLOSED  2.5              3          0          0          1                    
LSC01-08         RECT_CLOSED  2.5              2.4        0          0          1                    
LSC01-07.1       RECT_CLOSED  2.5              2.4        0          0          1                    
LSC01-06         RECT_CLOSED  2.5              3.3        0          0          1                    
LSC01-05         RECT_CLOSED  2.5              4.9        0          0          1                    
LSC01-04         RECT_CLOSED  2.5              4.9        0          0          1                    
LSC01-03         RECT_CLOSED  2.5              4.9        0          0          1                    
LSC01-02         RECT_CLOSED  2.5              4.9        0          0          1                    
LSC01-01         RECT_CLOSED  2.5              4.9        0          0          1                    
LSC01-00         RECT_CLOSED  2.5              5.6        0          0          1                    
LSC02-03         CIRCULAR     0.8              0.0001     0          0          1                    
LSC02-02         CIRCULAR     1.2              0.0001     0          0          1                    
LSC02-01         CIRCULAR     1.2              0.0001     0          0          1                    
LSC02-00         CIRCULAR     1.2              0.0001     0          0          1                    
LSC03-00         CIRCULAR     0.9              0.0001     0          0          1                    
LSC04-00         CIRCULAR     0.9              0.0001     0          0          1                    
LSC05-07         RECT_CLOSED  1.2              1.2        0          0          1                    
LSC05-06         RECT_CLOSED  1.2              1.2        0          0          1                    
LSC05-05         RECT_CLOSED  1.5              1.2        0          0          1                    
LSC05-04         RECT_CLOSED  1.5              1.2        0          0          1                    
LSC05-03         RECT_CLOSED  1.5              1.2        0          0          1                    
LSC05-02         RECT_CLOSED  1.5              1.2        0          0          1                    
LSC05-01         RECT_CLOSED  1.5              1.2        0          0          1                    
LSC05-00         RECT_CLOSED  1.5              1.2        0          0          1                    
LSC06-04         RECT_CLOSED  2                2.5        0          0          1                    
LSC06-03         RECT_CLOSED  2                2.5        0          0          1                    
LSC06-02         RECT_CLOSED  2                2.5        0          0          1                    
LSC06-01         RECT_CLOSED  2                2.5        0          0          1                    
LSC06-00         RECT_CLOSED  2                2.5        0          0          2                    
LSC08-02         RECT_CLOSED  1.5              2          0          0          1                    
LSC08-01         RECT_CLOSED  1.5              2          0          0          1                    
LSC08-00         RECT_CLOSED  1.5              2          0          0          1                    
LSC07-03         RECT_CLOSED  0.8              1.5        0          0          1                    
LSC07-02         RECT_CLOSED  0.8              1.5        0          0          1                    
LSC07-01         RECT_CLOSED  1.3              2.5        0          0          1                    
LSC07-00         RECT_CLOSED  1.3              2.5        0          0          1                    
LSC09-01         CIRCULAR     0.9              0.0001     0          0          1                    
LSC09-00         CIRCULAR     0.9              0.0001     0          0          1                    
LSC10-16         RECT_CLOSED  1.2              1.5        0          0          1                    
LSC10-15         RECT_CLOSED  1.2              1.5        0          0          1                    
LSC10-14         RECT_CLOSED  1.5              1.5        0          0          1                    
LSC10-13         RECT_CLOSED  1.5              1.5        0          0          1                    
LSC10-12         RECT_CLOSED  1.5              2          0          0          1                    
LSC10-11         RECT_CLOSED  2                2          0          0          1                    
LSC10-10         RECT_CLOSED  2                2.5        0          0          1                    
LSC10-09         RECT_CLOSED  2                2.5        0          0          1                    
LSC10-08         RECT_CLOSED  2                2.5        0          0          1                    
LSC10-07         RECT_CLOSED  2                2.5        0          0          1                    
LSC10-06         RECT_CLOSED  2                2.5        0          0          1                    
LSC10-05         RECT_CLOSED  2                4.5        0          0          1                    
LSC10-04         RECT_CLOSED  2                4.5        0          0          1                    
LSC10-03         RECT_CLOSED  2.5              2.5        0          0          2                    
LSC10-02         RECT_CLOSED  2.5              2.5        0          0          2                    
LSC10-01         RECT_CLOSED  2.5              2.5        0          0          2                    
LSC10-00         RECT_CLOSED  2.5              2.5        0          0          2                    
LSC11-04         CIRCULAR     1                0.0001     0          0          1                    
LSC11-03         CIRCULAR     1                0.0001     0          0          1                    
LSC11-02         CIRCULAR     1                0.0001     0          0          1                    
LSC11-01         RECT_CLOSED  1.2              2          0          0          1                    
LSC11-00         RECT_CLOSED  1.2              2          0          0          1                    
LSC12-04         RECT_CLOSED  1.5              2          0          0          1                    
LSC12-03.1       CIRCULAR     1                0.0001     0          0          1                    
LSC12-03.2       CIRCULAR     1.5              0.0001     0          0          1                    
LSC12-02.1       CIRCULAR     1                0.0001     0          0          1                    
LSC12-02.2       CIRCULAR     1.5              0.0001     0          0          1                    
LSC12-01.1       CIRCULAR     1                0.0001     0          0          1                    
LSC12-01.2       CIRCULAR     1.5              0.0001     0          0          1                    
LSC12-00         RECT_CLOSED  2                2.5        0          0          1                    
LSC13-02         CIRCULAR     1                0.0001     0          0          1                    
LSC13-01         CIRCULAR     1                0.0001     0          0          1                    
LSC13-00         RECT_CLOSED  1.2              1.2        0          0          1                    
LSC14-00         CIRCULAR     1.2              0.0001     0          0          1                    
LSC15-08.1       RECT_CLOSED  2.2              3          0          0          1                    
LSC15-08.2       RECT_CLOSED  2.5              2.2        0          0          2                    
LSC15-07.1       RECT_CLOSED  2.2              3          0          0          1                    
LSC15-07.2       RECT_CLOSED  2.6              2.3        0          0          2                    
LSC15-05         RECT_CLOSED  0.2              2.8        0          0          2                    
LSC15-04         RECT_CLOSED  2.65             2.8        0          0          3                    
LSC15-03         RECT_CLOSED  3                3          0          0          3                    
LSC15-02         RECT_CLOSED  2.65             2.8        0          0          3                    
LSC15-01         RECT_CLOSED  3                3          0          0          3                    
LSC15-00.3       RECT_CLOSED  3                3          0          0          3                    
LSC16-04         CIRCULAR     1                0.0001     0          0          1                    
LSC16-03         CIRCULAR     1                0.0001     0          0          1                    
LSC16-02         RECT_CLOSED  2                2          0          0          1                    
LSC16-01         RECT_CLOSED  2                2          0          0          1                    
LSC16-00         RECT_CLOSED  2                2          0          0          1                    
LSC17-00         RECT_CLOSED  1.5              1.5        0          0          1                    
LSC18-02         CIRCULAR     0.8              0.0001     0          0          1                    
LSC18-01         CIRCULAR     0.8              0.0001     0          0          1                    
LSC18-00         CIRCULAR     0.8              0.0001     0          0          1                    
LSC19-11         RECT_CLOSED  1.5              1.5        0          0          1                    
LSC19-10         RECT_CLOSED  1.5              1.5        0          0          1                    
LSC19-09         RECT_CLOSED  1.5              1.5        0          0          1                    
LSC19-08         RECT_CLOSED  2                4          0          0          1                    
LSC19-07         RECT_CLOSED  2                4          0          0          1                    
LSC19-06         RECT_CLOSED  2.5              4          0          0          1                    
LSC19-05         RECT_CLOSED  2.5              4          0          0          1                    
1248.1           RECT_CLOSED  2.5              4          0          0          1                    
a-01             RECT_CLOSED  2.5              2          0          0          1                    
1250.1           RECT_CLOSED  2.5              4          0          0          1                    
a-02             RECT_CLOSED  2.5              2          0          0          1                    
1252.1           RECT_CLOSED  2.5              4          0          0          1                    
a-03             RECT_CLOSED  2.5              2          0          0          1                    
1254.1           RECT_CLOSED  2.5              4          0          0          1                    
a-04             RECT_CLOSED  2.5              2          0          0          1                    
1255.1           RECT_CLOSED  2.5              4          0          0          1                    
a-05             RECT_CLOSED  2.5              2          0          0          1                    
LSC21-05         CIRCULAR     0.9              0.0001     0          0          1                    
LSC21-04         CIRCULAR     0.9              0.0001     0          0          1                    
LSC21-03         CIRCULAR     1                0.0001     0          0          1                    
LSC21-02         CIRCULAR     1                0.0001     0          0          1                    
LSC21-01         CIRCULAR     1                0.0001     0          0          1                    
LSC21-00         RECT_CLOSED  1.5              1.5        0          0          1                    
LSC20-08         RECT_CLOSED  2                2.8        0          0          1                    
LSC20-07         RECT_CLOSED  2                2.8        0          0          1                    
LSC20-06         RECT_CLOSED  2                3          0          0          1                    
LSC20-05         RECT_CLOSED  2                2.5        0          0          1                    
LSC20-04         RECT_CLOSED  2                2.5        0          0          1                    
LSC20-00         RECT_CLOSED  2                4          0          0          1                    
LSC20-03         RECT_CLOSED  2                4          0          0          1                    
LSC20-02         RECT_CLOSED  2                4          0          0          1                    
LSC20-01         RECT_CLOSED  2                4          0          0          1                    
LSC20-09         RECT_CLOSED  2                2          0          0          1                    
LSC22-00         RECT_CLOSED  1.2              1.2        0          0          1                    
LSC23-03         RECT_CLOSED  1.5              1.5        0          0          1                    
LSC23-02         RECT_CLOSED  1.5              1.5        0          0          1                    
LSC23-01         RECT_CLOSED  1.5              1.5        0          0          1                    
LSC23-00         RECT_CLOSED  1.5              1.5        0          0          1                    
LBC13-04         CIRCULAR     1.2              0.0001     0          0          1                    
LBC13-03         RECT_CLOSED  1.5              1.2        0          0          1                    
LBC14-05         RECT_CLOSED  1.5              1.1        0          0          1                    
LBC14-04         RECT_CLOSED  1.7              1.7        0          0          1                    
LBC14-03         RECT_CLOSED  1.7              1.7        0          0          1                    
LBC14-02         RECT_CLOSED  1.7              1.7        0          0          1                    
LBC14-01         RECT_CLOSED  1.7              1.7        0          0          1                    
LBC14-00         RECT_CLOSED  1.7              1.7        0          0          1                    
LBC16-06         RECT_CLOSED  1.5              1.5        0          0          1                    
LBC16-05         RECT_CLOSED  1.5              1.5        0          0          1                    
LBC16-04         RECT_CLOSED  1.5              1.5        0          0          1                    
LBC16-03         RECT_CLOSED  1.7              1.7        0          0          1                    
LBC16-02         RECT_CLOSED  1.7              1.7        0          0          1                    
LBC16-00         RECT_CLOSED  1.7              1.7        0          0          1                    
LBC17-00         CIRCULAR     0.9              0.0001     0          0          1                    
LBC18-00         CIRCULAR     1                0.0001     0          0          1                    
LBC13-02         RECT_CLOSED  1.5              1.5        0          0          1                    
LBC13-01         RECT_CLOSED  1.5              1.5        0          0          1                    
LBC13-00         RECT_CLOSED  1.5              1.3        0          0          1                    
LBC16-000        RECT_CLOSED  1.7              1.7        0          0          1                    
LBC15-01         CIRCULAR     0.9              0.0001     0          0          1                    
LBC15-00         CIRCULAR     1                0.0001     0          0          1                    
LBPC-31          RECT_CLOSED  8.28             6.5        0          0          4                    
LBPC-30          RECT_CLOSED  8.28             6.9        0          0          4                    
LBPC-29          RECT_CLOSED  8.2              6.7        0          0          4                    
LBPC-28          RECT_CLOSED  7.61             6.4        0          0          4                    
LBPC-27          RECT_CLOSED  7.17             7.3        0          0          3                    
LBPC-26          RECT_CLOSED  8                7.3        0          0          3                    
LBPC-25          IRREGULAR    No.25           
LBPC-24          IRREGULAR    No.24           
LBPC-23          IRREGULAR    No.23           
LBPC-22          IRREGULAR    No.22           
LBPC-21          IRREGULAR    No.21           
LBPC-20          IRREGULAR    No.20           
LBPC-19          IRREGULAR    No.19           
LBPC-18          IRREGULAR    No.18           
LBPC-17          IRREGULAR    No.17           
LBPC-16          IRREGULAR    No.16           
LBPC-15          IRREGULAR    No.15           
LBPC-14          IRREGULAR    No.14           
LBPC-13          IRREGULAR    No.13           
LBPC-12          IRREGULAR    No.12           
LBPC-11          IRREGULAR    No.11           
LBPC-10          IRREGULAR    No.10           
LBPC-08          IRREGULAR    No.8            
LBPC-07          IRREGULAR    No.7            
LBPC-06          IRREGULAR    No.6            
LBPC-05          IRREGULAR    No.5            
LBPC-04          IRREGULAR    No.4            
LBPC-03          IRREGULAR    No.3            
LBPC-02          IRREGULAR    No.2            
LBPC-01          IRREGULAR    No.1            
LBPC-00          IRREGULAR    No.0            
LBPC-09          IRREGULAR    No.9            
LBPC-32          RECT_CLOSED  8.28             6.5        0          0          4                    
LBPC-33.1        RECT_CLOSED  4.5              18.7       0          0          1                    
LBPC-33.2        RECT_CLOSED  2.3              2.85       0          0          2                    
LBC01-17         RECT_CLOSED  4.5              18.7       0          0          1                    
LBC01-1801       RECT_CLOSED  3                4.7        0          0          1                    
LBC01-1802       RECT_CLOSED  3                4.5        0          0          3                    
LBC01-1803       RECT_CLOSED  3                3          0          0          1                    
LBC01-1811       RECT_CLOSED  3                4.7        0          0          1                    
LBC01-1812       RECT_CLOSED  3                4.5        0          0          3                    
LBC01-2011       RECT_CLOSED  3.5              2          0          0          3                    
LBC01-2012       RECT_CLOSED  3                3.6        0          0          2                    
LYS90            RECT_CLOSED  3.5              2          0          0          1                    
LYS91-01         RECT_CLOSED  3.2              3.8        0          0          1                    
LYS01-03         RECT_CLOSED  2.5              3.5        0          0          1                    
LYS01-03.2       RECT_CLOSED  2.5              3.5        0          0          1                    
LH7              RECT_CLOSED  2.5              1.5        0          0          1                    
LYS99-02         RECT_CLOSED  3                2          0          0          1                    
LYS99-03         RECT_CLOSED  1.5              1.5        0          0          3                    
LYS99-04         RECT_CLOSED  1.5              1.5        0          0          3                    
LYS99-05         RECT_CLOSED  3                3          0          0          1                    
LNH01-00         RECT_CLOSED  3                2.65       0          0          2                    
LNH01-00.1       RECT_CLOSED  2.8              2.15       0          0          2                    
LNH01-00.2       RECT_CLOSED  2.8              4.6        0          0          1                    
LNH01-05         RECT_CLOSED  3.5              2.6        0          0          1                    
LNH01-05.2       RECT_CLOSED  3.5              2.6        0          0          1                    
1485.1           RECT_CLOSED  3.5              4.1        0          0          1                    
q-05             RECT_CLOSED  3.5              2.2        0          0          1                    
LSC15-0001       RECT_CLOSED  2.7              2.9        0          0          1                    
LSC15-0002       RECT_CLOSED  2.7              2.7        0          0          2                    
LSC15-00.1       RECT_CLOSED  2.7              3          0          0          3                    
LSC15-00.2       RECT_CLOSED  3.2              3          0          0          3                    
LH1-02.1         RECT_CLOSED  2.8              3.8        0          0          1                    
LH1-01           RECT_CLOSED  4.2              6.2        0          0          1                    
LH1-00           HORSESHOE    3.8              0.0001     0          0          1                    
LSC01-07         RECT_CLOSED  2.5              3.3        0          0          1                    
LSC01-10.1       RECT_CLOSED  2.5              3          0          0          1                    
LBP01-14         RECT_CLOSED  2.5              2          0          0          2                    
LBP01-20         RECT_CLOSED  2.3              2.2        0          0          3                    
1508.1           RECT_CLOSED  2.5              2          0          0          2                    
p-07             RECT_CLOSED  2.5              3.5        0          0          1                    
1510.1           RECT_CLOSED  2.2              2          0          0          1                    
p-04             RECT_CLOSED  2                3          0          0          1                    
LBP11-05         RECT_CLOSED  1.5              1.5        0          0          1                    
LBP13-01         RECT_CLOSED  2                2.5        0          0          1                    
LBP13-01.1       CIRCULAR     1.5              0.0001     0          0          2                    
NHL_015          RECT_CLOSED  1.7              1.7        0          0          1                    
SDCL_010         RECT_CLOSED  3                3.5        0          0          2                    
SDCL_009         RECT_CLOSED  3                3.5        0          0          1                    
SDCL_008         RECT_CLOSED  2.8              3          0          0          2                    
SDCL_007         RECT_CLOSED  2.8              3          0          0          2                    
SDCL_039         RECT_CLOSED  8.4              6.4        0          0          2                    
SDCL_031         RECT_CLOSED  5.82             5          0          0          3                    
SDCL_034         RECT_CLOSED  7.5              6.4        0          0          2                    
SDCL_027         RECT_CLOSED  5                4.2        0          0          3                    
SDCL_033         RECT_CLOSED  6.69             6.4        0          0          2                    
SDCL_032         RECT_CLOSED  5.68             4.2        0          0          3                    
SDCL_038         RECT_CLOSED  8.8              6.4        0          0          2                    
SDCL_037         RECT_CLOSED  8.4              6.4        0          0          2                    
SDCL_036         RECT_CLOSED  8                6.4        0          0          2                    
SDCL_035         RECT_CLOSED  7.6              6.4        0          0          2                    
SDCL_003         IRREGULAR    No.74SD         
NHL_032          IRREGULAR    Ji_no2          
SDCL_025         RECT_CLOSED  4.54             5.2        0          0          3                    
SDCL_024         RECT_CLOSED  4.17             4.9        0          0          4                    
SDCL_023         RECT_CLOSED  3.98             5.1        0          0          4                    
SDCL_026         RECT_CLOSED  4.72             5.2        0          0          3                    
SDCL_026_1       RECT_CLOSED  5.47             9.15       0          0          2                    
SDCL_017         RECT_CLOSED  3.38             4.28       0          0          5                    
SDCL_013         RECT_CLOSED  2.5              6          0          0          3                    
SDCL_011         RECT_CLOSED  2.6              4.4        0          0          2                    
SDCL_016         RECT_CLOSED  3.33             3.68       0          0          5                    
SDCL_012         RECT_CLOSED  2.5              6          0          0          3                    
SDCL_016_1       RECT_CLOSED  3.31             4.07       0          0          5                    
NHL_006          RECT_CLOSED  2.5              2.5        0          0          1                    
NHL_029          IRREGULAR    Ji_no3          
NHL_020          RECT_CLOSED  2                2          0          0          1                    
SDCL_001         IRREGULAR    No.76SD         
SDCL_006         RECT_CLOSED  3                3          0          0          1                    
SDCL_004         RECT_CLOSED  3                3          0          0          1                    
SDCL_014         RECT_CLOSED  3.35             3.3        0          0          1                    
SDCL_018         RECT_CLOSED  3.45             4.5        0          0          1                    
SDCL_020         RECT_CLOSED  3.54             4.5        0          0          1                    
SDCL_021         RECT_CLOSED  3.65             4.62       0          0          1                    
SDCL_028         RECT_CLOSED  5.6              5          0          0          1                    
SDCL_040         RECT_CLOSED  8                6.4        0          0          1                    
LH7.1            RECT_CLOSED  2.5              1.5        0          0          1                    
LYS90.1          RECT_CLOSED  3.5              2          0          0          2                    
LYS92-00.1       RECT_CLOSED  3.8              3.2        0          0          1                    
LYS90.2          RECT_CLOSED  3.5              2          0          0          2                    
LYS90.3          RECT_CLOSED  3.5              2          0          0          2                    
LYS92-01.1       RECT_CLOSED  3.2              3.8        0          0          1                    
LYS90.4          RECT_CLOSED  3.5              2          0          0          1                    
LYS91-01.2       RECT_CLOSED  3.2              3.8        0          0          1                    
LYS92-01.2       RECT_CLOSED  3.5              2          0          0          1                    
L1976            RECT_CLOSED  2                4          0          0          1                    
L1978            RECT_CLOSED  2                4          0          0          1                    
L1979            RECT_CLOSED  2                4          0          0          1                    
L1981            RECT_CLOSED  2                4          0          0          1                    
L1982            RECT_CLOSED  2                4          0          0          1                    
L1983            RECT_CLOSED  2                4          0          0          1                    
L1984            RECT_CLOSED  2                4          0          0          1                    
L1985            RECT_CLOSED  2                8          0          0          1                    
LYS96-1.2        RECT_CLOSED  3.5              2          0          0          2                    
LYS96-1          RECT_CLOSED  3.5              2          0          0          2                    
LYS96-2          RECT_CLOSED  3.2              3.8        0          0          1                    
TP00             RECT_CLOSED  6                5          0          0          1                    
TP01             CIRCULAR     7.5              0.0001     0          0          1                    
TP03             RECT_CLOSED  3                4          0          0          3                    
TP02             CIRCULAR     7.5              0.0001     0          0          1                    
L1997            RECT_CLOSED  1.3              3          0          0          2                    
L1999            RECT_CLOSED  2                3          0          0          1                    
L2004            RECT_CLOSED  3                2.5        0          0          2                    
L2005            RECT_CLOSED  3                2.5        0          0          2                    
L2007            RECT_CLOSED  2.3              2.2        0          0          4                    
L2008            RECT_CLOSED  2.5              1.5        0          0          1                    
L2009            RECT_CLOSED  3                2.5        0          0          2                    
L2010            RECT_CLOSED  3                2.5        0          0          2                    
L2011            RECT_CLOSED  3                2.5        0          0          2                    
LSC15-0611       RECT_CLOSED  2.15             2.9        0          0          1                    
LSC15-0612       RECT_CLOSED  2.5              2.3        0          0          2                    
1674.1           RECT_CLOSED  2.5              2.5        0          0          3                    
aaaaa            RECT_CLOSED  2.5              1          0          0          1                    
wwwww            RECT_CLOSED  2.2              5          0          0          4                    
1                RECT_CLOSED  3.5              4.6        0          0          1                    

[TRANSECTS]
;;Transect Data in HEC-2 format
;
NC 0.033    0.033    0.033   
X1 No.25             22       0        34.7     0.0      0.0      0        0        0       
GR 14.37    0        16.49    0        14.17    1.5      12.57    5.3      12.27    6.5     
GR 12.27    7.6      8.66     12.3     8.31     12.8     8.2      13.28    8.11     15.84   
GR 8.16     20.16    8.31     22.6     8.57     23.09    10.53    26.7     10.63    27.3    
GR 14.64    33.2     14.64    33.75    15.04    34.4     16.69    34.7     16.49    35.9    
GR 16.69    35.9     16.49    39.9    
;
NC 0.033    0.033    0.033   
X1 No.24             19       0        38.9     0.0      0.0      0        0        0       
GR 16.02    0        15.17    0.4      13.82    3.6      12.92    4.8      12.92    6.4     
GR 12.42    7.6      10.98    10.7     10.78    12       9.18     13.1     7.87     15.5    
GR 8.09     15.5     8.09     24.4     7.87     24.4     9.5      26.4     9.5      28.5    
GR 15.11    38.6     16.71    38.9     16.71    40.1     16.31    44.2    
;
NC 0.033    0.033    0.033   
X1 No.23             19       0        38.2     0.0      0.0      0        0        0       
GR 13.06    0        14.52    0        12.91    0.4      13.06    0.4      11.71    3.6     
GR 10.81    4.8      10.81    6.4      7.37     14.2     7.17     14.74    7.19     17.23   
GR 7.2      19.74    7.17     21.7     7.37     22       8.88     24.7     8.88     27.2    
GR 15.31    37.9     16.66    38.2     16.66    39.4     16.36    43.5    
;
NC 0.033    0.033    0.033   
X1 No.22             22       0        36.5     0.0      0.0      0        0        0       
GR 12.75    0        13.95    0        12.6     0.4      12.75    0.4      11.4     3.6     
GR 10.5     4.8      10.5     6.4      7.37     10.68    7.1      10.8     7.2      10.8    
GR 7.27     10.8     7.27     19.4     7.2      19.4     7.1      19.4     7.37     19.57   
GR 8.71     22.2     8.71     24.8     15.23    36.2     16.58    36.5     16.28    37.7    
GR 16.58    37.7     16.28    41.8    
;
NC 0.033    0.033    0.033   
X1 No.21             30       0        36.7     0.0      0.0      0        0        0       
GR 14.13    0        12.93    0        12.93    0.35     12.43    0.35     11.93    1.1     
GR 11.93    1.4      11.73    1.4      11.63    2.6      10.52    4.4      10.52    5.4     
GR 8.63     9.5      8.17     12.7     7.08     13.8     6.7      14.27    6.74     17.87   
GR 6.73     21.81    6.7      23.63    7.08     24.3     8.07     25.3     8.89     26.1    
GR 8.89     28.4     11.22    32.4     11.57    32.4     11.57    32.9     12.82    35.3    
GR 14.02    35.3     14.02    36.7     15.12    36.7     14.9     40.6     14.58    47.2    
;
NC 0.033    0.033    0.033   
X1 No.20             27       0        42.5     0.0      0.0      0        0        0       
GR 13.25    0        13.05    0.3      13.25    0.3      12.09    3.5      10.99    4.9     
GR 10.09    7.7      10.09    7.9      8.89     9.5      7.17     14.45    7.07     14.7    
GR 7.17     14.7     6.77     15.49    6.81     18.43    6.8      21.47    6.77     22.86   
GR 6.77     23.32    7.07     23.7     8.58     25.1     8.58     27.7     11.29    34.4    
GR 11.3     37.8     12.09    38.4     16.88    42.5     16.88    42.7     16.08    43.6    
GR 16.08    47.2     15.98    48.3    
;
NC 0.033    0.033    0.033   
X1 No.19             24       8        44.2     0.0      0.0      0        0        0       
GR 17.56    0        17.56    5        18.16    5        18.16    7.6      18.76    7.6     
GR 18.76    8        17.21    8        10.33    10.5     6.78     16.5     6.68     17.2191 
GR 6.7171   19.6482  6.734    24.098   6.68     26.3109  6.78     26.8     7.28     27.3    
GR 7.28     28.2     8.18     28.2     8.18     31.85    10.48    31.85    16.17    44.2    
GR 16.17    46.7     16.17    50       15.77    50       15.77    51      
;
NC 0.033    0.033    0.033   
X1 No.18             19       6.21     54.61    0.0      0.0      0        0        0       
GR 19.75    0.01     19.75    5.01     20.3     5.01     20.3     6.21     19.05    6.21    
GR 13.69    6.21     13.69    8.81     13.89    9.31     13.89    12.81    6.6      24.41   
GR 6.38     24.91    6.4      28.16    6.43     32.11    6.38     36.01    6.6      36.31   
GR 12.73    46.91    16.65    54.61    16.65    57.11    16.65    59.61   
;
NC 0.033    0.033    0.033   
X1 No.17             31       6.4      47.8     0.0      0.0      0        0        0       
GR 15.24    0        15.24    5        16.14    5.2      16.14    6.1      17.04    6.1     
GR 17.04    6.4      10.18    6.4      10.08    7.1      8.18     11.8     6.58     15.1    
GR 6.26     15.73    6.3      17.4     6.28     20.38    6.31     22.27    6.36     23.64   
GR 6.36     24.33    6.58     24.7     8.5      27.4     8.5      29.5     8.5      29.75   
GR 9.82     32.4     15.67    43.7     15.67    44.2     16.72    46.6     17.02    47.8    
GR 17.02    52.8     16.67    53.1     16.37    53.1     16.37    53.4     16.67    53.4    
GR 16.67    53.9    
;
NC 0.033    0.033    0.033   
X1 No.16             27       6.2      49.5     0.0      0.0      0        0        0       
GR 14.85    0        14.85    5        15.85    5.2      15.85    5.9      16.65    5.9     
GR 16.65    6.2      15.75    6.2      15.75    7.4      9.65     7.4      9.55     8.4     
GR 6.58     15.9     6.18     16.79    6.13     18.84    6.12     22.87    6.08     24.49   
GR 6.58     25.2     8.1      26.8     8.1      28.8     8.15     29.4     10.61    36.8    
GR 17       49.5     17       54.5     16.75    54.85    16.45    54.85    16.45    55.15   
GR 16.75    55.15    16.75    55.65   
;
NC 0.033    0.033    0.033   
X1 No.15             25       6.16     44.9     0.0      0.0      0        0        0       
GR 14.75    0        14.75    5        15.75    5.2      15.75    6        16.65    6       
GR 16.65    6.16     15.49    6.16     15.49    7.5      9.79     7.5      7.88     13      
GR 7.58     14.2     6.5      15.6     6        16.41    6.08     20.11    6.05     24.19   
GR 6.07     25.71    6.5      26.4     7.81     27.8     7.81     28.5     7.81     30.4    
GR 15.59    44.6     15.59    44.9     16.29    44.9     16.29    59.3     15.49    61.3    
;
NC 0.033    0.033    0.033   
X1 No.14             33       6.5      53.9     0.0      0.0      0        0        0       
GR 14.05    0        14.05    5        15.05    5.3      15.05    6.2      16.45    6.2     
GR 16.45    6.5      14.74    6.5      14.74    7.5      10.94    7.5      10.84    8.7     
GR 8.04     14.3     7.74     15.3     6.5      17.2     6.35     18.28    6.32     19.96   
GR 6.25     22.48    6.26     24.91    6.29     26.13    6.5      26.8     7.37     27.8    
GR 7.57     28.5     7.57     30.7     7.63     34.9     7.78     34.9     7.78     35.1    
GR 14.12    47.8     15.27    51.9     15.77    53.7     15.97    53.7     15.97    53.9    
GR 16.32    53.9     16.32    56.4     16.12    58.1    
;
NC 0.033    0.033    0.033   
X1 No.13             32       17.1     69.16    0.0      0.0      0        0        0       
GR 14.17    0        14.17    15.6     15.17    15.9     15.17    16.8     16.57    16.8    
GR 16.57    17.1     15.15    17.1     15.15    18.16    11.15    18.16    7.54     26.96   
GR 7.44     28.16    6.32     29.76    6.14     30.34    5.92     32.63    5.99     36.8    
GR 6.32     41.56    7.42     42.76    7.52     43.66    7.52     45.96    7.58     49.96   
GR 7.73     49.96    7.73     50.11    11.48    57.16    11.48    57.76    13.92    62.76   
GR 16.1     67.06    16.5     69.16    16.7     69.16    16.7     69.36    16.35    69.36   
GR 16.35    72.96    13.85    76.66   
;
NC 0.033    0.033    0.033   
X1 No.12             36       14.27    71.77    0.0      0.0      0        0        0       
GR 14.58    0        14.58    12.87    15.48    13.47    15.48    13.97    16.58    13.97   
GR 16.58    14.27    13.92    14.27    13.92    15.17    10.72    15.17    10.72    17.67   
GR 9.63     18.27    9.63     19.47    7.37     27.17    7.17     28.17    6.18     30.17   
GR 6.03     30.9     5.83     38.27    5.97     41.82    6.18     41.97    7.04     42.97   
GR 7.24     44.17    7.24     46.47    7.32     50.57    7.47     50.57    7.47     50.72   
GR 10.94    58.47    10.94    59.27    14.15    65.67    14.15    66.47    16.26    70.37   
GR 16.46    71.77    16.66    71.77    16.66    71.97    16.31    71.97    16.31    75.77   
GR 14.61    79.27   
;
NC 0.033    0.033    0.033   
X1 No.11             26       8.2      55       0.0      0.0      0        0        0       
GR 14.8     0        14.8     8.2      14.2     8.2      10.07    8.2      10.07    8.7     
GR 5.96     14       5.8      14.26    5.66     16.67    5.71     24.9     5.96     25.2    
GR 7.59     26.1     7.59     26.7     7.19     27.1     7.19     29.4     7.25     33.3    
GR 7.4      33.3     7.4      33.45    10.67    41.6     10.67    42       16.31    54.2    
GR 16.31    55       16.51    55       16.51    55.2     16.16    55.2     16.16    58.4    
GR 13.66    62.1    
;
NC 0.033    0.033    0.033   
X1 No.10             24       0        56.1     0.0      0.0      0        0        0       
GR 12.71    0        7.1      13       6.95     16.6     6.12     18.2     6.01     18.49   
GR 5.82     22.84    5.92     27.71    6.12     28.7     7.41     29.3     7.41     29.7    
GR 7.11     30.2     7.11     32.6     7.19     36.6     7.34     36.6     7.34     36.75   
GR 11.23    43.7     11.23    44.2     16.37    55.5     16.37    56.1     16.72    56.1    
GR 16.72    56.3     16.37    56.3     16.37    59.1     13.87    62.8    
;
NC 0.033    0.033    0.033   
X1 No.8              20       0        63.7     0.0      0.0      0        0        0       
GR 14.36    0        6.75     14.5     6.66     24.7     5.95     25.3     5.65     25.65   
GR 5.69     28.64    5.68     30.89    5.65     33.81    5.95     34.2     6.74     34.9    
GR 6.99     44.8     7.06     50.3     11.46    50.3     11.46    50.5     10.91    50.5    
GR 10.91    56       14.16    56       14.16    60.2     16.28    63.7     16.28    69.2    
;
NC 0.033    0.033    0.033   
X1 No.7              25       0        67.67    0.0      0.0      0        0        0       
GR 16.27    0        7.34     13.57    7.28     16.07    7.28     17.17    6.7      23.27   
GR 6.7      24.37    6.85     27.37    5.73     28.17    5.54     28.36    5.33     30.88   
GR 5.37     35.65    5.73     36.37    6.66     37.07    6.99     46.77    7.03     48.17   
GR 7.43     53.27    6.93     53.77    6.93     54.07    11.02    57.77    11.02    60.27   
GR 14.66    63.97    14.66    64.37    16.13    67.67    16.13    71.67    13.84    75.17   
;
NC 0.033    0.033    0.033   
X1 No.6              28       16.95    85.85    0.0      0.0      0        0        0       
GR 18.55    0        18.55    16.95    17.95    16.95    17.09    16.95    7.34     31.75   
GR 7.28     34.25    7.28     35.35    6.7      41.45    6.7      42.55    6.85     45.55   
GR 5.73     46.35    5.54     46.54    5.33     49.06    5.37     53.83    5.73     54.55   
GR 6.66     55.25    6.99     64.95    7.03     66.35    7.43     71.45    6.93     71.95   
GR 6.93     72.25    11.02    75.95    11.02    78.45    14.66    82.15    14.66    82.55   
GR 16.34    85.85    16.34    89.85    13.84    93.35   
;
NC 0.033    0.033    0.033   
X1 No.5              30       31.92    96.52    0.0      0.0      0        0        0       
GR 18.39    0        18.39    31.41    18.39    31.92    17.79    31.92    10.18    31.92   
GR 10.08    34.72    9.28     34.72    7.02     39.12    7.11     46.92    6.73     53.42   
GR 5.57     54.32    5.43     54.68    5.27     57.57    5.32     61.59    5.57     62.92   
GR 6.73     64.22    6.82     66.32    6.92     72.72    6.62     73.12    6.62     74.72   
GR 7.06     76.32    7.25     83.52    10.78    87.02    10.78    89.32    14.61    93.22   
GR 14.61    93.72    16.31    96.52    16.31    100.92   13.61    103.42   13.61    111.8   
;
NC 0.033    0.033    0.033   
X1 No.4              26       5.47     81.37    0.0      0.0      0        0        0       
GR 16.52    0        15.62    4.67     16.52    5.12     16.77    5.12     16.77    5.22    
GR 17.52    5.22     17.52    5.47     16.02    5.47     8.69     7.07     7.85     11.07   
GR 6.97     18.67    6.87     20.87    5.73     23.27    5.63     29.67    5.38     30.97   
GR 5.17     31.41    4.98     40.54    5.12     46.92    5.38     47.77    6.66     48.17   
GR 6.76     49.07    6.97     59.97    16.42    81.37    16.42    85.27    14.62    87.27   
GR 14.62    100.41  
;
NC 0.033    0.033    0.033   
X1 No.3              41       10.4     110.9    0.0      0.0      0        0        0       
GR 18.45    0        18.45    10       18.65    10       18.65    10.4     12.93    23.6    
GR 12.93    24       12.73    24       12.73    32       12.88    32       12.88    32.15   
GR 12.83    32.7     12.23    32.7     10.91    35.2     10.91    35.5     7.51     35.5    
GR 7.51     35.7     7.01     35.7     7.01     36.5     7.51     36.5     7.42     49.4    
GR 4.9      54.9     4.55     54.9     4.44     57.7     4.08     58.15    3.74     60.17   
GR 4.05     65.19    4.44     66.5     4.9      68.05    5.1      73.55    5.1      73.9    
GR 7.46     78.5     7.56     81.4     7.8      90.7     14.62    107.5    16.66    110.9   
GR 17.16    110.9    17.16    111.2    16.66    111.2    16.66    113.7    16.96    113.8   
GR 16.96    116.8   
;
NC 0.033    0.033    0.033   
X1 No.2              48       22.52    163.53   0.0      0.0      0        0        0       
GR 16.49    0        16.67    11.2     16.55    22.52    13.28    24.03    14.48    24.03   
GR 13.48    30.53    13.28    30.53    13.48    30.93    11.62    37.33    11.42    37.73   
GR 11.62    37.73    11.57    45.73    11.42    45.73    11.52    45.88    11.57    45.88   
GR 10.87    46.43    11.52    46.43    7.45     49.43    10       49.43    7.05     49.63   
GR 7.45     49.63    7.45     50.03    7.05     50.03    7.85     50.43    7.72     61.63   
GR 7.37     72.33    4.31     78.33    4.17     82.33    4.08     83.63    3.97     89.18   
GR 4.03     95.72    4.17     96.03    5.04     104.53   7.23     107.33   7.43     108.43  
GR 7.65     116.83   8.61     142.53   10.49    145.73   10.19    145.73   9.99     146.03  
GR 10.49    146.03   9.99     148.53   11.09    148.73   11.09    149.13   16.62    158.73  
GR 16.62    161.93   17.62    163.53   17.62    183.53  
;
NC 0.033    0.033    0.033   
X1 No.1              23       22.09    131.69   0.0      0.0      0        0        0       
GR 18.99    0        18.99    22.09    15.79    22.09    15.79    23.39    7.03     23.39   
GR 6.81     40.99    3.97     46.35    3.83     47.25    3.67     53.29    3.62     63.74   
GR 3.64     76.54    3.7      81.48    3.76     82.89    3.97     83.86    4.36     85.49   
GR 4.52     90.99    6.34     96.29    6.45     106.39   9.69     113.29   9.69     114.09  
GR 17.38    128.59   17.88    131.69   17.68    131.69  
;
NC 0.033    0.033    0.033   
X1 No.0              40       15       125.9    0.0      0.0      0        0        0       
GR 17.43    0        17.53    15       15.53    15       13.93    15.9     11.47    15.9    
GR 15.53    16.2     14.23    16.2     11.47    16.5     11.27    16.5     11.27    24.2    
GR 11.47    24.2     11.47    24.4     11.37    24.4     11.37    25       11.27    25.6    
GR 7.93     32.3     7.73     32.3     7.73     32.5     5.83     32.5     5.83     34.8    
GR 5.84     39.9     3.62     42.6     3.62     44       3.02     44       2.56     44      
GR 2.39     53.2     2.45     85.86    2.53     118.5    3.02     118.5    3.29     118.5   
GR 3.29     122.5    3.9      124.9    4.95     124.9    4.95     125.9    6.5      125.9   
GR 6.53     140.8    6.09     145.1    6.09     147.1    6.79     148.1    7.19     168.1   
;
NC 0.033    0.033    0.033   
X1 No.9              26       0        72.4     0.0      0.0      0        0        0       
GR 13.28    0        6.87     15.4     6.86     15.4     6.79     22.9     5.99     23.7    
GR 5.64     24.09    5.64     25.81    5.67     27.58    5.72     30.32    5.68     35.81   
GR 5.64     39.01    5.99     40.1     6.87     41.4     6.97     42.5     7.14     49.2    
GR 7.29     49.2     7.29     49.4     11.96    61.7     14.16    61.7     14.16    65      
GR 14.26    66.8     16.58    72.4     16.78    72.4     16.78    72.6     16.38    72.6    
GR 16.38    75.1    
;
NC 0.035    0.035    0.035   
X1 No.74SD           13       5.59     20.29    0.0      0.0      0        0        0       
GR 41.47    0        40.79    5.59     37.49    6.29     37.49    7.29     36.59    7.29    
GR 36.44    8.29     36.44    13.29    36.59    14.29    37.07    19.79    40.81    20.29   
GR 40.71    23.29    41.61    27.29    41.61    31.56   
;
NC 0.035    0.035    0.035   
X1 Ji_no2            4        0        11.86    0.0      0.0      0        0        0       
GR 47.52    0        43.82    0        43.82    8.8      46.52    11.86   
;
NC 0.035    0.035    0.035   
X1 Ji_no3            4        0        6.7      0.0      0.0      0        0        0       
GR 47.9     0        46.15    0        46.15    6.7      47.9     6.7     
;
NC 0.035    0.035    0.035   
X1 No.76SD           12       0        20       0.0      0.0      0        0        0       
GR 46.95    0        41.95    7        41.95    7.5      41.15    7.5      40.95    9.5     
GR 40.75    11.5     40.75    13       40.95    14.5     41.25    19.5     44.55    20      
GR 44.55    23       44.55    28.63   

[LOSSES]
;;Link           Kentry     Kexit      Kavg       Flap Gate  Seepage   
;;-------------- ---------- ---------- ---------- ---------- ----------
LBP01-30         0          0          0.0        NO         0         
LBP01-29         0          0          0.0        NO         0         
LBP01-28         0          0          0.0        NO         0         
LBP01-27         0          0          0.0        NO         0         
LBP01-26         0          0          0.0        NO         0         
LBP01-25         0          0          0.0        NO         0         
216.1            0          0          0.0        NO         0         
p-01             0          0          0.0        NO         0         
218.1            0          0          0.0        NO         0         
p-02             0          0          0.0        NO         0         
220.1            0          0          0.0        NO         0         
p-03             0          0          0.0        NO         0         
222.1            0          0          0.0        NO         0         
p-05             0          0          0.0        NO         0         
226.1            0          0          0.0        NO         0         
L-05             0          0          0.0        NO         0         
228.1            0          0          0.0        NO         0         
L-04             0          0          0.0        NO         0         
230.1            0          0          0.0        NO         0         
L-03             0          0          0.0        NO         0         
232.1            0          0          0.0        NO         0         
L-02             0          0          0.0        NO         0         
234.1            0          0          0.0        NO         0         
L-01             0          0          0.0        NO         0         
LBP01-13         0          0          0.0        NO         0         
LBP01-12         0          0          0.0        NO         0         
LBP01-11         0          0          0.0        NO         0         
LBP01-10         0.5        1          0.0        NO         0         
LBP01-09         0          0          0.0        NO         0         
LBP01-08         0          0          0.0        NO         0         
LBP01-07         0          0          0.0        NO         0         
LBP01-06         0          0          0.0        NO         0         
LBP01-05         0          0          0.0        NO         0         
LBP01-04         0          0          0.0        NO         0         
LBP01-03         0          0          0.0        NO         0         
LBP15-00         0          0          0.0        NO         0         
LBP02-03         0          0          0.0        NO         0         
LBP02-02         0          0          0.0        NO         0         
LBP02-01         0          0          0.0        NO         0         
LBP02-00         0          0          0.0        NO         0         
LBP03-03         0          0          0.0        NO         0         
LBP03-02         0          0          0.0        NO         0         
LBP03-01         0          0          0.0        NO         0         
LBP03-00         0          0          0.0        NO         0         
LBP05-02         0          0          0.0        NO         0         
LBP05-01         0          0          0.0        NO         0         
LBP05-00         0          0          0.0        NO         0         
LBP04-03         0          0          0.0        NO         0         
LBP04-02         0          0          0.0        NO         0         
LBP04-01         0          0          0.0        NO         0         
LBP04-00         0          0          0.0        NO         0         
LBP04-12         0          0          0.0        NO         0         
LBP04-11         0          0          0.0        NO         0         
LBP04-10         0          0          0.0        NO         0         
LBP04-09         0          0          0.0        NO         0         
LBP04-08         0          0          0.0        NO         0         
LBP04-07         0          0          0.0        NO         0         
LBP04-06         0          0          0.0        NO         0         
LBP04-05         0          0          0.0        NO         0         
LBP04-04         0          0          0.0        NO         0         
LBP06-11         0          0          0.0        NO         0         
LBP06-09         0          0          0.0        NO         0         
LBP06-07         0          0          0.0        NO         0         
LBP06-06         0          0          0.0        NO         0         
LBP06-05         0          0          0.0        NO         0         
LBP06-04.1       0          0          0.0        NO         0         
LBP06-04.2       0          0          0.0        NO         0         
LBP06-03.1       0          0          0.0        NO         0         
LBP06-03.2       0          0          0.0        NO         0         
LBP06-02         0          0          0.0        NO         0         
LBP06-01         0          0          0.0        NO         0         
LBP06-00.1       0          0          0.0        NO         0         
LBP06-00.2       0          0          0.0        NO         0         
LBP08-05         0          0          0.0        NO         0         
LBP08-02         0          0          0.0        NO         0         
LBP08-00         0          0          0.0        NO         0         
LBP07-01         0          0          0.0        NO         0         
LBP07-00         0          0          0.0        NO         0         
LBP09-01         0          0          0.0        NO         0         
LBP09-00         0          0          0.0        NO         0         
LBP10-00         0          0          0.0        NO         0         
LBP12-01         0          0          0.0        NO         0         
LBP12-00         0          0          0.0        NO         0         
LBP11-05.1       0          0          0.0        NO         0         
LBP11-04         0          0          0.0        NO         0         
LBP11-03         0          0          0.0        NO         0         
LBP11-02         0          0          0.0        NO         0         
LBP11-01         0          0          0.0        NO         0         
LBP11-00         0          0          0.0        NO         0         
LBP11-06         0          0          0.0        NO         0         
LBP13-13         0          0          0.0        NO         0         
LBP13-12         0          0          0.0        NO         0         
LBP13-11         0          0          0.0        NO         0         
LBP13-10         0          0          0.0        NO         0         
LBP13-09         0          0          0.0        NO         0         
LBP13-08         0          0          0.0        NO         0         
LBP13-07         0          0          0.0        NO         0         
LBP13-06         0          0          0.0        NO         0         
LBP13-05         0          0          0.0        NO         0         
LBP13-04         0          0          0.0        NO         0         
LBP13-03         0          0          0.0        NO         0         
LBP13-02         0          0          0.0        NO         0         
LBP13-01.2       0          0          0.0        NO         0         
LBP13-00         0          0          0.0        NO         0         
LBP14-00         0          0          0.0        NO         0         
403.1            0          0          0.0        NO         0         
p-06             0          0          0.0        NO         0         
LBP08-01         0          0          0.0        NO         0         
LBP08-03         0          0          0.0        NO         0         
LBP06-08         0          0          0.0        NO         0         
SCpump_in        0          0          0.0        NO         0         
LNH01-28         0          0          0.0        NO         0         
LNH01-27         0          0          0.0        NO         0         
LNH01-26         0          0          0.0        NO         0         
LNH01-25         0          0          0.0        NO         0         
LNH01-24         0          0          0.0        NO         0         
LNH01-23         0          0          0.0        NO         0         
LNH01-22         0          0          0.0        NO         0         
LNH01-21         0          0          0.0        NO         0         
LNH01-20         0          0          0.0        NO         0         
LNH01-19         0          0          0.0        NO         0         
LNH01-18         0          0          0.0        NO         0         
LNH01-17         0          0          0.0        NO         0         
LNH01-16         0          0          0.0        NO         0         
LNH01-15         0          0          0.0        NO         0         
LNH01-14         0          0          0.0        NO         0         
LNH01-13         0          0          0.0        NO         0         
LNH01-12         0          0          0.0        NO         0         
543.1            0          0          0.0        NO         0         
q-01             0          0          0.0        NO         0         
545.1            0          0          0.0        NO         0         
q-02             0          0          0.0        NO         0         
547.1            0          0          0.0        NO         0         
q-03             0          0          0.0        NO         0         
549.1            0          0          0.0        NO         0         
q-04             0          0          0.0        NO         0         
553.1            0          0          0.0        NO         0         
q-06             0          0          0.0        NO         0         
LNH01-05.1       0          0          0.0        NO         0         
LNH01-04         0          0          0.0        NO         0         
LNH01-03         0          0          0.0        NO         0         
LNH01-02         0          0          0.0        NO         0         
LNH01-01         0          0          0.0        NO         0         
LNH02-01         0          0          0.0        NO         0         
LNH02-00         0          0          0.0        NO         0         
LNH03-02         0          0          0.0        NO         0         
LNH03-01         0          0          0.0        NO         0         
LNH03-00         0          0          0.0        NO         0         
LNH04-03         0          0          0.0        NO         0         
LNH04-02         0          0          0.0        NO         0         
LNH04-01         0          0          0.0        NO         0         
LNH04-00         0          0          0.0        NO         0         
LNH05-02         0          0          0.0        NO         0         
LNH05-01         0          0          0.0        NO         0         
LNH05-00         0          0          0.0        NO         0         
LNH06-00         0          0          0.0        NO         0         
LNH07-13         0          0          0.0        NO         0         
LNH07-12         0          0          0.0        NO         0         
LNH07-11         0          0          0.0        NO         0         
LNH07-10         0          0          0.0        NO         0         
LNH07-09         0          0          0.0        NO         0         
LNH07-08         0          0          0.0        NO         0         
LNH07-07         0          0          0.0        NO         0         
LNH07-06         0          0          0.0        NO         0         
LNH07-05         0          0          0.0        NO         0         
LNH07-04         0          0          0.0        NO         0         
LNH07-03         0          0          0.0        NO         0         
LNH07-02         0          0          0.0        NO         0         
LNH07-01         0          0          0.0        NO         0         
LNH07-00         0          0          0.0        NO         0         
LNH11-03         0          0          0.0        NO         0         
LNH11-02         0          0          0.0        NO         0         
LNH11-01         0          0          0.0        NO         0         
LNH11-00         0          0          0.0        NO         0         
LNH10-00         0          0          0.0        NO         0         
LNH10-03         0          0          0.0        NO         0         
LNH10-02         0          0          0.0        NO         0         
LNH10-01         0          0          0.0        NO         0         
LNH08-02         0          0          0.0        NO         0         
LNH08-01         0          0          0.0        NO         0         
LNH08-00         0          0          0.0        NO         0         
LNH09-00         0          0          0.0        NO         0         
LNH12-01         0          0          0.0        NO         0         
LNH12-00         0          0          0.0        NO         0         
LNH13-00         0          0          0.0        NO         0         
LNH14-01         0          0          0.0        NO         0         
LNH14-00         0          0          0.0        NO         0         
LNH15-06         0          0          0.0        NO         0         
LNH15-05         0          0          0.0        NO         0         
LNH15-04         0          0          0.0        NO         0         
LNH15-03         0          0          0.0        NO         0         
LNH15-02         0          0          0.0        NO         0         
LNH15-01         0          0          0.0        NO         0         
LNH15-00         0          0          0.0        NO         0         
LNH16-00         0          0          0.0        NO         0         
LNH18-06         0          0          0.0        NO         0         
LNH18-05         0          0          0.0        NO         0         
LNH18-04         0          0          0.0        NO         0         
LNH18-03         0          0          0.0        NO         0         
LNH18-02         0          0          0.0        NO         0         
LNH18-01         0          0          0.0        NO         0         
LNH18-00         0          0          0.0        NO         0         
LNH17-01         0          0          0.0        NO         0         
LNH17-00         0          0          0.0        NO         0         
LBC01-1821       0          0          0.0        NO         0         
LBC01-1822       0          0          0.0        NO         0         
LBC01-1823       0          0          0.0        NO         0         
LBC01-16         0          0          0.0        NO         0         
LBPC-42.1        0          0          0.0        NO         0         
LBPC-42.2        0          0          0.0        NO         0         
LBPC-42.3        0          0          0.0        NO         0         
LBPC-41.1        0          0          0.0        NO         0         
LBPC-41.2        0          0          0.0        NO         0         
LBPC-41.3        0          0          0.0        NO         0         
LBPC-40.1        0          0          0.0        NO         0         
LBPC-40.2        0          0          0.0        NO         0         
LBPC-40.3        0          0          0.0        NO         0         
LBPC-39.21       0          0          0.0        NO         0         
LBPC-39.22       0          0          0.0        NO         0         
LBPC-39.11       0          0          0.0        NO         0         
LBPC-39.12       0          0          0.0        NO         0         
LBPC-38.21       0          0          0.0        NO         0         
LBPC-38.22       0          0          0.0        NO         0         
LBPC-38.11       0          0          0.0        NO         0         
LBPC-38.12       0          0          0.0        NO         0         
LBPC-37.31       0          0          0.0        NO         0         
LBPC-37.32       0          0          0.0        NO         0         
LBPC-37.21       0          0          0.0        NO         0         
LBPC-37.22       0          0          0.0        NO         0         
LBPC-37.11       0          0          0.0        NO         0         
LBPC-37.12       0          0          0.0        NO         0         
LBPC-36.1        0          0          0.0        NO         0         
LBPC-36.2        0          0          0.0        NO         0         
LBPC-35.31       0          0          0.0        NO         0         
LBPC-35.32       0          0          0.0        NO         0         
LBPC-35.11       0          0          0.0        NO         0         
LBPC-35.12       0          0          0.0        NO         0         
LBPC-34.1        0          0          0.0        NO         0         
LBPC-34.2        0          0          0.0        NO         0         
LBPC-325         0          0          0.0        NO         0         
LBC04-01         0          0          0.0        NO         0         
LBC04-00         0          0          0.0        NO         0         
LBC03-04         0          0          0.0        NO         0         
LBC03-03         0          0          0.0        NO         0         
LBC03-02         0          0          0.0        NO         0         
LBC03-01         0          0          0.0        NO         0         
LBC03-00         0          0          0.0        NO         0         
LBC02-00         0          0          0.0        NO         0         
LBC09-00         0          0          0.0        NO         0         
LBC10-00         0          0          0.0        NO         0         
LBC11-02         0          0          0.0        NO         0         
LBC11-00         0          0          0.0        NO         0         
LSR01-10         0          0          0.0        NO         0         
LSR01-09         0          0          0.0        NO         0         
LSR01-08         0          0          0.0        NO         0         
LSR01-07         0          0          0.0        NO         0         
LSR01-06         0          0          0.0        NO         0         
LSR01-05         0          0          0.0        NO         0         
LSR01-03         0          0          0.0        NO         0         
LSR01-02         0          0          0.0        NO         0         
LSR01-01         0          0          0.0        NO         0         
LSR01-00         0          0          0.0        NO         0         
LSR02-04         0          0          0.0        NO         0         
LSR02-03         0          0          0.0        NO         0         
LSR02-02         0          0          0.0        NO         0         
InStr_Sr         0          0          0.0        NO         0         
LSR03-00         0          0          0.0        NO         0         
LBC01-2001       0          0          0.0        NO         0         
LBC01-2002       0          0          0.0        NO         0         
LBC01-19.1       0          0          0.0        NO         0         
LBC01-19.2       0          0          0.0        NO         0         
LBC01-19.3       0          0          0.0        NO         0         
LBC12-00         0          0          0.0        NO         0         
LBP01-01         0          0          0.0        NO         0         
LBP01-00         0          0          0.0        NO         0         
LYS01-18         0          0          0.0        NO         0         
LYS01-17         0          0          0.0        NO         0         
LYS01-16         0          0          0.0        NO         0         
LYS01-15         0          0          0.0        NO         0         
LYS01-14         0          0          0.0        NO         0         
LYS01-13         0          0          0.0        NO         0         
LYS01-12         0          0          0.0        NO         0         
LYS01-11         0          0          0.0        NO         0         
LYS01-10         0          0          0.0        NO         0         
LYS01-09         0          0          0.0        NO         0         
LYS01-08         0          0          0.0        NO         0         
LYS01-07.1       0          0          0.0        NO         0         
LYS01-07.2       0          0          0.0        NO         0         
LYS01-06.1       0          0          0.0        NO         0         
LYS01-06.2       0          0          0.0        NO         0         
LYS01-05.1       0          0          0.0        NO         0         
LYS01-05.2       0          0          0.0        NO         0         
LYS01-04.1       0          0          0.0        NO         0         
LYS01-04.2       0          0          0.0        NO         0         
LYS01-03.1       0          0          0.0        NO         0         
LYS01-02         0          0          0.0        NO         0         
LYS02-05         0          0          0.0        NO         0         
LYS02-04         0          0          0.0        NO         0         
LYS02-03         0          0          0.0        NO         0         
LYS02-02         0          0          0.0        NO         0         
LYS02-01         0          0          0.0        NO         0         
LYS02-00         0          0          0.0        NO         0         
LYS03-00         0          0          0.0        NO         0         
LYS05-10         0          0          0.0        NO         0         
LYS05-09         0          0          0.0        NO         0         
LYS05-08         0          0          0.0        NO         0         
LYS05-07         0          0          0.0        NO         0         
LYS05-06         0          0          0.0        NO         0         
LYS05-05         0          0          0.0        NO         0         
LYS05-04         0          0          0.0        NO         0         
LYS05-03         0          0          0.0        NO         0         
LYS05-02         0          0          0.0        NO         0         
LYS05-00         0          0          0.0        NO         0         
LYS06-00         0          0          0.0        NO         0         
LYS07-01         0          0          0.0        NO         0         
LYS07-00         0          0          0.0        NO         0         
LYS08-11         0          0          0.0        NO         0         
LYS08-10         0          0          0.0        NO         0         
LYS08-09         0          0          0.0        NO         0         
LYS08-08         0          0          0.0        NO         0         
LYS08-07         0          0          0.0        NO         0         
LYS08-06         0          0          0.0        NO         0         
LYS08-05         0          0          0.0        NO         0         
LYS08-04         0          0          0.0        NO         0         
LYS08-03         0          0          0.0        NO         0         
LYS08-02         0          0          0.0        NO         0         
LYS08-00         0          0          0.0        NO         0         
LYS09-01         0          0          0.0        NO         0         
LYS09-00         0          0          0.0        NO         0         
LYS10-01         0          0          0.0        NO         0         
LYS10-00         0          0          0.0        NO         0         
LYS11-03         0          0          0.0        NO         0         
LYS11-02         0          0          0.0        NO         0         
LYS12-05         0          0          0.0        NO         0         
LYS12-04         0          0          0.0        NO         0         
LYS12-03         0          0          0.0        NO         0         
LYS12-02         0          0          0.0        NO         0         
LYS12-01         0          0          0.0        NO         0         
LYS12-00         0          0          0.0        NO         0         
LYS13-07         0          0          0.0        NO         0         
LYS13-06         0          0          0.0        NO         0         
LYS13-05         0          0          0.0        NO         0         
LYS13-04         0          0          0.0        NO         0         
LYS13-03         0          0          0.0        NO         0         
LYS13-02         0          0          0.0        NO         0         
LYS13-01         0          0          0.0        NO         0         
LYS13-00.1       0          0          0.0        NO         0         
LYS13-00.2       0          0          0.0        NO         0         
LYS14-02         0          0          0.0        NO         0         
LYS14-01         0          0          0.0        NO         0         
LYS14-00         0          0          0.0        NO         0         
LYS18-01         0          0          0.0        NO         0         
LYS18-00         0          0          0.0        NO         0         
LYS15-02         0          0          0.0        NO         0         
LYS15-01         0          0          0.0        NO         0         
LYS15-00         0          0          0.0        NO         0         
LYS16-03         0          0          0.0        NO         0         
LYS16-02         0          0          0.0        NO         0         
LYS16-01         0          0          0.0        NO         0         
LYS16-00         0          0          0.0        NO         0         
LYS17-00         0          0          0.0        NO         0         
LYS95-00         0          0          0.0        NO         0         
LYS95-01         0          0          0.0        NO         0         
LYS96-2.2        0          0          0.0        NO         0         
LYS92-01         0          0          0.0        NO         0         
LYS92-00         0          0          0.0        NO         0         
LYS93-00         0          1          0.0        NO         0         
LYS94-00         0          0          0.0        NO         0         
LYS99-00         0          0          0.0        NO         0         
LYS99-01         0          1          0.0        NO         0         
LYS11-01         0          0          0.0        NO         0         
LYS11-00         0          0          0.0        NO         0         
LYS05-001        0          0          0.0        NO         0         
LSC01-21         0          0          0.0        NO         0         
LSC01-20         0          0          0.0        NO         0         
LSC01-19         0          0          0.0        NO         0         
LSC01-18         0          0          0.0        NO         0         
LSC01-17         0          0          0.0        NO         0         
LSC01-16         0          0          0.0        NO         0         
LSC01-15         0          0          0.0        NO         0         
LSC01-14         0          0          0.0        NO         0         
LSC01-13         0          0          0.0        NO         0         
LSC01-12         0          0          0.0        NO         0         
LSC01-11         0          0          0.0        NO         0         
LSC01-10         0          0          0.0        NO         0         
LSC01-09         0          0          0.0        NO         0         
LSC01-08         0          0          0.0        NO         0         
LSC01-07.1       0          0          0.0        NO         0         
LSC01-06         0          0          0.0        NO         0         
LSC01-05         0          0          0.0        NO         0         
LSC01-04         0          0          0.0        NO         0         
LSC01-03         0          0          0.0        NO         0         
LSC01-02         0          0          0.0        NO         0         
LSC01-01         0          0          0.0        NO         0         
LSC01-00         0          0          0.0        NO         0         
LSC02-03         0          0          0.0        NO         0         
LSC02-02         0          0          0.0        NO         0         
LSC02-01         0          0          0.0        NO         0         
LSC02-00         0          0          0.0        NO         0         
LSC03-00         0          0          0.0        NO         0         
LSC04-00         0          0          0.0        NO         0         
LSC05-07         0          0          0.0        NO         0         
LSC05-06         0          0          0.0        NO         0         
LSC05-05         0          0          0.0        NO         0         
LSC05-04         0          0          0.0        NO         0         
LSC05-03         0          0          0.0        NO         0         
LSC05-02         0          0          0.0        NO         0         
LSC05-01         0          0          0.0        NO         0         
LSC05-00         0          0          0.0        NO         0         
LSC06-04         0          0          0.0        NO         0         
LSC06-03         0          0          0.0        NO         0         
LSC06-02         0          0          0.0        NO         0         
LSC06-01         0          0          0.0        NO         0         
LSC06-00         0          0          0.0        NO         0         
LSC08-02         0          0          0.0        NO         0         
LSC08-01         0          0          0.0        NO         0         
LSC08-00         0          0          0.0        NO         0         
LSC07-03         0          0          0.0        NO         0         
LSC07-02         0          0          0.0        NO         0         
LSC07-01         0          0          0.0        NO         0         
LSC07-00         0          0          0.0        NO         0         
LSC09-01         0          0          0.0        NO         0         
LSC09-00         0          0          0.0        NO         0         
LSC10-16         0          0          0.0        NO         0         
LSC10-15         0          0          0.0        NO         0         
LSC10-14         0          0          0.0        NO         0         
LSC10-13         0          0          0.0        NO         0         
LSC10-12         0          0          0.0        NO         0         
LSC10-11         0          0          0.0        NO         0         
LSC10-10         0          0          0.0        NO         0         
LSC10-09         0          0          0.0        NO         0         
LSC10-08         0          0          0.0        NO         0         
LSC10-07         0          0          0.0        NO         0         
LSC10-06         0          0          0.0        NO         0         
LSC10-05         0          0          0.0        NO         0         
LSC10-04         0          0          0.0        NO         0         
LSC10-03         0          0          0.0        NO         0         
LSC10-02         0          0          0.0        NO         0         
LSC10-01         0          0          0.0        NO         0         
LSC10-00         0          0          0.0        NO         0         
LSC11-04         0          0          0.0        NO         0         
LSC11-03         0          0          0.0        NO         0         
LSC11-02         0          0          0.0        NO         0         
LSC11-01         0          0          0.0        NO         0         
LSC11-00         0          0          0.0        NO         0         
LSC12-04         0          0          0.0        NO         0         
LSC12-03.1       0          0          0.0        NO         0         
LSC12-03.2       0          0          0.0        NO         0         
LSC12-02.1       0          0          0.0        NO         0         
LSC12-02.2       0          0          0.0        NO         0         
LSC12-01.1       0          0          0.0        NO         0         
LSC12-01.2       0          0          0.0        NO         0         
LSC12-00         0          0          0.0        NO         0         
LSC13-02         0          0          0.0        NO         0         
LSC13-01         0          0          0.0        NO         0         
LSC13-00         0          0          0.0        NO         0         
LSC14-00         0          0          0.0        NO         0         
LSC15-08.1       0          0          0.0        NO         0         
LSC15-08.2       0          0          0.0        NO         0         
LSC15-07.1       0          0          0.0        NO         0         
LSC15-07.2       0          0          0.0        NO         0         
LSC15-05         0          0          0.0        NO         0         
LSC15-04         0          0          0.0        NO         0         
LSC15-03         0          0          0.0        NO         0         
LSC15-02         0          0          0.0        NO         0         
LSC15-01         0          0          0.0        NO         0         
LSC15-00.3       0          0          0.0        NO         0         
LSC16-04         0          0          0.0        NO         0         
LSC16-03         0          0          0.0        NO         0         
LSC16-02         0          0          0.0        NO         0         
LSC16-01         0          0          0.0        NO         0         
LSC16-00         0          0          0.0        NO         0         
LSC17-00         0          0          0.0        NO         0         
LSC18-02         0          0          0.0        NO         0         
LSC18-01         0          0          0.0        NO         0         
LSC18-00         0          0          0.0        NO         0         
LSC19-11         0          0          0.0        NO         0         
LSC19-10         0          0          0.0        NO         0         
LSC19-09         0          0          0.0        NO         0         
LSC19-08         0          0          0.0        NO         0         
LSC19-07         0          0          0.0        NO         0         
LSC19-06         0          0          0.0        NO         0         
LSC19-05         0          0          0.0        NO         0         
1248.1           0          0          0.0        NO         0         
a-01             0          0          0.0        NO         0         
1250.1           0          0          0.0        NO         0         
a-02             0          0          0.0        NO         0         
1252.1           0          0          0.0        NO         0         
a-03             0          0          0.0        NO         0         
1254.1           0          0          0.0        NO         0         
a-04             0          0          0.0        NO         0         
1255.1           0          0          0.0        NO         0         
a-05             0          0          0.0        NO         0         
LSC21-05         0          0          0.0        NO         0         
LSC21-04         0          0          0.0        NO         0         
LSC21-03         0          0          0.0        NO         0         
LSC21-02         0          0          0.0        NO         0         
LSC21-01         0          0          0.0        NO         0         
LSC21-00         0          0          0.0        NO         0         
LSC20-08         0          0          0.0        NO         0         
LSC20-07         0          0          0.0        NO         0         
LSC20-06         0          0          0.0        NO         0         
LSC20-05         0          0          0.0        NO         0         
LSC20-04         0          0          0.0        NO         0         
LSC20-00         0          0          0.0        NO         0         
LSC20-03         0          0          0.0        NO         0         
LSC20-02         0          0          0.0        NO         0         
LSC20-01         0          0          0.0        NO         0         
LSC20-09         0          0          0.0        NO         0         
LSC22-00         0          0          0.0        NO         0         
LSC23-03         0          0          0.0        NO         0         
LSC23-02         0          0          0.0        NO         0         
LSC23-01         0          0          0.0        NO         0         
LSC23-00         0          0          0.0        NO         0         
LBC13-04         0          0          0.0        NO         0         
LBC13-03         0          0          0.0        NO         0         
LBC14-05         0          0          0.0        NO         0         
LBC14-04         0          0          0.0        NO         0         
LBC14-03         0          0          0.0        NO         0         
LBC14-02         0          0          0.0        NO         0         
LBC14-01         0          0          0.0        NO         0         
LBC14-00         0          0          0.0        NO         0         
LBC16-06         0          0          0.0        NO         0         
LBC16-05         0          0          0.0        NO         0         
LBC16-04         0          0          0.0        NO         0         
LBC16-03         0          0          0.0        NO         0         
LBC16-02         0          0          0.0        NO         0         
LBC16-00         0          0          0.0        NO         0         
LBC17-00         0          0          0.0        NO         0         
LBC18-00         0          0          0.0        NO         0         
LBC13-02         0          0          0.0        NO         0         
LBC13-01         0          0          0.0        NO         0         
LBC13-00         0          0          0.0        NO         0         
LBC16-000        0          0          0.0        NO         0         
LBC15-01         0          0          0.0        NO         0         
LBC15-00         0          0          0.0        NO         0         
LBPC-31          0          0          0.0        NO         0         
LBPC-30          0          0          0.0        NO         0         
LBPC-29          0          0          0.0        NO         0         
LBPC-28          0          0          0.0        NO         0         
LBPC-27          0          0          0.0        NO         0         
LBPC-26          0          0          0.0        NO         0         
LBPC-25          0          0          0.0        NO         0         
LBPC-24          0          0          0.0        NO         0         
LBPC-23          0          0          0.0        NO         0         
LBPC-22          0          0          0.0        NO         0         
LBPC-21          0          0          0.0        NO         0         
LBPC-20          0          0          0.0        NO         0         
LBPC-19          0          0          0.0        NO         0         
LBPC-18          0          0          0.0        NO         0         
LBPC-17          0          0          0.0        NO         0         
LBPC-16          0          0          0.0        NO         0         
LBPC-15          0          0          0.0        NO         0         
LBPC-14          0          0          0.0        NO         0         
LBPC-13          0          0          0.0        NO         0         
LBPC-12          0          0          0.0        NO         0         
LBPC-11          0          0          0.0        NO         0         
LBPC-10          0          0          0.0        NO         0         
LBPC-08          0          0          0.0        NO         0         
LBPC-07          0          0          0.0        NO         0         
LBPC-06          0          0          0.0        NO         0         
LBPC-05          0          0          0.0        NO         0         
LBPC-04          0          0          0.0        NO         0         
LBPC-03          0          0          0.0        NO         0         
LBPC-02          0          0          0.0        NO         0         
LBPC-01          0          0          0.0        NO         0         
LBPC-00          0          0          0.0        NO         0         
LBPC-09          0          0          0.0        NO         0         
LBPC-32          0          0          0.0        NO         0         
LBPC-33.1        0          0          0.0        NO         0         
LBPC-33.2        0          0          0.0        NO         0         
LBC01-17         0          0          0.0        NO         0         
LBC01-1801       0          0          0.0        NO         0         
LBC01-1802       0          0          0.0        NO         0         
LBC01-1803       0          0          0.0        NO         0         
LBC01-1811       0          0          0.0        NO         0         
LBC01-1812       0          0          0.0        NO         0         
LBC01-2011       0          0          0.0        NO         0         
LBC01-2012       0          0          0.0        NO         0         
LYS90            0          0          0.0        NO         0         
LYS91-01         0          0          0.0        NO         0         
LYS01-03         0          0          0.0        NO         0         
LYS01-03.2       0          0          0.0        NO         0         
LH7              0          1          0.0        NO         0         
LYS99-02         0          0          0.0        NO         0         
LYS99-03         0          0          0.0        NO         0         
LYS99-04         0          0          0.0        NO         0         
LYS99-05         0          0          0.0        NO         0         
LNH01-00         0          0          0.0        NO         0         
LNH01-00.1       0          0          0.0        NO         0         
LNH01-00.2       0          0          0.0        NO         0         
LNH01-05         0          0          0.0        NO         0         
LNH01-05.2       0          0          0.0        NO         0         
1485.1           0          0          0.0        NO         0         
q-05             0          0          0.0        NO         0         
LSC15-0001       0          0          0.0        NO         0         
LSC15-0002       0          0          0.0        NO         0         
LSC15-00.1       0          0          0.0        NO         0         
LSC15-00.2       0          0          0.0        NO         0         
LH1-02.1         0          0          0.0        NO         0         
LH1-01           0          0          0.0        NO         0         
LH1-00           0          0          0.0        NO         0         
LSC01-07         0          0          0.0        NO         0         
LSC01-10.1       0          0          0.0        NO         0         
LBP01-14         0          0          0.0        NO         0         
LBP01-20         0          0          0.0        NO         0         
1508.1           0          0          0.0        NO         0         
p-07             0          0          0.0        NO         0         
1510.1           0          0          0.0        NO         0         
p-04             0          0          0.0        NO         0         
LBP11-05         0          0          0.0        NO         0         
LBP13-01         0          0          0.0        NO         0         
LBP13-01.1       0          0          0.0        NO         0         
NHL_015          0          0          0.0        NO         0         
SDCL_010         0          0          0.0        NO         0         
SDCL_009         0          0          0.0        NO         0         
SDCL_008         0          0          0.0        NO         0         
SDCL_007         0          0          0.0        NO         0         
SDCL_039         0          0          0.0        NO         0         
SDCL_031         0          0          0.0        NO         0         
SDCL_034         0          0          0.0        NO         0         
SDCL_027         0          0          0.0        NO         0         
SDCL_033         0          0          0.0        NO         0         
SDCL_032         0          0          0.0        NO         0         
SDCL_038         0          0          0.0        NO         0         
SDCL_037         0          0          0.0        NO         0         
SDCL_036         0          0          0.0        NO         0         
SDCL_035         0          0          0.0        NO         0         
SDCL_003         0          0          0.0        NO         0         
NHL_032          0          0          0.0        NO         0         
SDCL_025         0          0          0.0        NO         0         
SDCL_024         0          0          0.0        NO         0         
SDCL_023         0          0          0.0        NO         0         
SDCL_026         0          0          0.0        NO         0         
SDCL_026_1       0          0          0.0        NO         0         
SDCL_017         0          0          0.0        NO         0         
SDCL_013         0          0          0.0        NO         0         
SDCL_011         0          0          0.0        NO         0         
SDCL_016         0          0          0.0        NO         0         
SDCL_012         0          0          0.0        NO         0         
SDCL_016_1       0          0          0.0        NO         0         
NHL_006          0          0          0.0        NO         0         
NHL_029          0          0          0.0        NO         0         
NHL_020          0          0          0.0        NO         0         
SDCL_001         0          0          0.0        NO         0         
SDCL_006         0          0          0.0        NO         0         
SDCL_004         0          0          0.0        NO         0         
SDCL_014         0          0          0.0        NO         0         
SDCL_018         0          0          0.0        NO         0         
SDCL_020         0          0          0.0        NO         0         
SDCL_021         0          0          0.0        NO         0         
SDCL_028         0          0          0.0        NO         0         
SDCL_040         0          0          0.0        NO         0         
LH7.1            0          1          0.0        NO         0         
LYS90.1          0          0          0.0        NO         0         
LYS92-00.1       0          0          0.0        NO         0         
LYS90.2          0          0          0.0        NO         0         
LYS90.3          0          0          0.0        NO         0         
LYS92-01.1       0          0          0.0        NO         0         
LYS90.4          0          0          0.0        NO         0         
LYS91-01.2       0          0          0.0        NO         0         
LYS92-01.2       0          0          0.0        NO         0         
L1976            0          0          0.0        NO         0         
L1978            0          0          0.0        NO         0         
L1979            0          0          0.0        NO         0         
L1981            0          0          0.0        NO         0         
L1982            0          0          0.0        NO         0         
L1983            0          0          0.0        NO         0         
L1984            0          0          0.0        NO         0         
L1985            0          0          0.0        NO         0         
LYS96-1.2        0          0          0.0        NO         0         
LYS96-1          0          0          0.0        NO         0         
LYS96-2          0          0          0.0        NO         0         
TP00             0          0          0.0        NO         0         
TP01             0          0          0.0        NO         0         
TP03             0          0          0.0        NO         0         
TP02             0          0          0.0        NO         0         
L1997            0          0          0.0        NO         0         
L1999            0          0          0.0        NO         0         
L2004            0          0          0.0        NO         0         
L2005            0          0          0.0        NO         0         
L2007            0          0          0.0        NO         0         
L2008            0          0          0.0        NO         0         
L2009            0          0          0.0        NO         0         
L2010            0          0          0.0        NO         0         
L2011            0          0          0.0        NO         0         
LSC15-0611       0          0          0.0        NO         0         
LSC15-0612       0          0          0.0        NO         0         
1674.1           0          0          0.0        NO         0         
aaaaa            0          0          0.0        NO         0         
wwwww            0          0          0.0        NO         0         

[CURVES]
;;Name           Type       X-Value    Y-Value   
;;-------------- ---------- ---------- ----------
BPpump           Pump2      0          0         
BPpump                      1.7        0         
BPpump                      1.9        4.7       
BPpump                      2.1        9.4       
BPpump                      2.3        14        
BPpump                      2.5        24        
BPpump                      2.7        36        
BPpump                      5.9        62.2      
;
SCpump           Pump2      0          0         
SCpump                      3.7        0         
SCpump                      4.1        4.67      
SCpump                      4.5        9.33      
SCpump                      4.9        14        
SCpump                      5.3        18.67     
SCpump                      8.2        23.33     
;
SRpump           Pump2      0          0         
SRpump                      0.8        0         
SRpump                      1.8        2.25      
SRpump                      3          7.58      
SRpump                      4.1        12.92     
;
SPpump           Pump2      0          0         
SPpump                      4.2        0         
SPpump                      4.3        5         
SPpump                      4.6        10        
SPpump                      5          15        
SPpump                      5.4        20        
SPpump                      5.8        25        
SPpump                      9.5        32.7      
;
Str_BP_ST        Storage    1.5        57008     
Str_BP_ST                   2          57417     
Str_BP_ST                   2.5        58122     
Str_BP_ST                   3          58857     
Str_BP_ST                   3.5        59620     
Str_BP_ST                   4          60412     
;
Str_Sc_ST        Storage    0          150       
Str_Sc_ST                   3.4        684       
Str_Sc_ST                   8          684       
;
Str_SR_ST        Storage    0          947.37    
Str_SR_ST                   9.5        947.37    
;
Str_SP_ST        Storage    0          2400      
Str_SP_ST                   3.89       2400      
Str_SP_ST                   3.9        2400      
Str_SP_ST                   5.7        2400      
Str_SP_ST                   6.7        2400      
Str_SP_ST                   7.65       2400      
;
MH2014_ST        Storage    0          2027      
MH2014_ST                   7.4        2027      
MH2014_ST                   8          2027      
MH2014_ST                   8.01       1         
MH2014_ST                   10         1         

[TIMESERIES]
;;Name           Date       Time       Value     
;;-------------- ---------- ---------- ----------
TS2              08/08/2022 12:09      0         
TS2              08/08/2022 12:19      0.5       
TS2              08/08/2022 12:29      1         
TS2              08/08/2022 12:39      3         
TS2              08/08/2022 12:49      4         
TS2              08/08/2022 12:59      4.5       
TS2              08/08/2022 13:09      6         
TS2              08/08/2022 13:19      6         
TS2              08/08/2022 13:29      6.5       
TS2              08/08/2022 13:39      5         
TS2              08/08/2022 13:49      4         
TS2              08/08/2022 13:59      2.5       
TS2              08/08/2022 14:09      2         
TS2              08/08/2022 14:19      1         
TS2              08/08/2022 14:29      1         
TS2              08/08/2022 14:39      0.5       
TS2              08/08/2022 14:49      0.5       
TS2              08/08/2022 14:59      0.5       
TS2              08/08/2022 15:09      0.5       
TS2              08/08/2022 15:19      0         
TS2              08/08/2022 15:29      0         
TS2              08/08/2022 15:39      1         
TS2              08/08/2022 15:49      2         
TS2              08/08/2022 15:59      2         
TS2              08/08/2022 16:09      1.5       
TS2              08/08/2022 16:19      1         
TS2              08/08/2022 16:29      1         
TS2              08/08/2022 16:39      0         
TS2              08/08/2022 16:49      0         
TS2              08/08/2022 16:59      0         
TS2              08/08/2022 17:09      0         
TS2              08/08/2022 17:19      0         
TS2              08/08/2022 17:29      0         
TS2              08/08/2022 17:39      0         
TS2              08/08/2022 17:49      0.5       
TS2              08/08/2022 17:59      1.5       
TS2              08/08/2022 18:09      2.5       
TS2              08/08/2022 18:19      2.5       
TS2              08/08/2022 18:29      2         
TS2              08/08/2022 18:39      2         
TS2              08/08/2022 18:49      2         
TS2              08/08/2022 18:59      1.5       
TS2              08/08/2022 19:09      1         
TS2              08/08/2022 19:19      0.5       
TS2              08/08/2022 19:29      0.5       
TS2              08/08/2022 19:39      0         
TS2              08/08/2022 19:49      1.5       
TS2              08/08/2022 19:59      2.5       
TS2              08/08/2022 20:09      3         
TS2              08/08/2022 20:19      4.5       
TS2              08/08/2022 20:29      7.5       
TS2              08/08/2022 20:39      15.5      
TS2              08/08/2022 20:49      22        
TS2              08/08/2022 20:59      21        
TS2              08/08/2022 21:09      20        
TS2              08/08/2022 21:19      18        
TS2              08/08/2022 21:29      17        
TS2              08/08/2022 21:39      16.5      
TS2              08/08/2022 21:49      13.5      
TS2              08/08/2022 21:59      9         
TS2              08/08/2022 22:09      8         
TS2              08/08/2022 22:19      10.5      
TS2              08/08/2022 22:29      11.5      
TS2              08/08/2022 22:39      10        
TS2              08/08/2022 22:49      5.5       
TS2              08/08/2022 22:59      7         
TS2              08/08/2022 23:09      5.5       
TS2              08/08/2022 23:19      6.5       
TS2              08/08/2022 23:29      7.5       
TS2              08/08/2022 23:39      5         
TS2              08/08/2022 23:49      0.5       
TS2              08/08/2022 23:59      2         
TS2              08/09/2022 0:09       2         
TS2              08/09/2022 0:19       0.5       
TS2              08/09/2022 0:29       0.5       
TS2              08/09/2022 0:39       0         
TS2              08/09/2022 0:49       0         
TS2              08/09/2022 0:59       0         
TS2              08/09/2022 1:09       0         
TS2              08/09/2022 1:19       0         
TS2              08/09/2022 1:29       0         
TS2              08/09/2022 1:39       0         
TS2              08/09/2022 1:49       0         
TS2              08/09/2022 1:59       1.5       
TS2              08/09/2022 2:09       1.5       
TS2              08/09/2022 2:19       2         
TS2              08/09/2022 2:29       3.5       
TS2              08/09/2022 2:39       4.5       
TS2              08/09/2022 2:49       4.5       
TS2              08/09/2022 2:59       4         
TS2              08/09/2022 3:09       3.5       
TS2              08/09/2022 3:19       4         
TS2              08/09/2022 3:29       3         
TS2              08/09/2022 3:39       2.5       
TS2              08/09/2022 3:49       2         
TS2              08/09/2022 3:59       1         
TS2              08/09/2022 4:09       0         
TS2              08/09/2022 4:19       1.5       
TS2              08/09/2022 4:29       2         
TS2              08/09/2022 4:39       2         
TS2              08/09/2022 4:49       1         
TS2              08/09/2022 4:59       0.5       
TS2              08/09/2022 5:09       0         
TS2              08/09/2022 5:19       0         
TS2              08/09/2022 5:29       0.5       
TS2              08/09/2022 5:39       0         
TS2              08/09/2022 5:49       0         
TS2              08/09/2022 5:59       0         
TS2              08/09/2022 6:09       0.5       
TS2              08/09/2022 6:19       0         
TS2              08/09/2022 6:29       0.5       
TS2              08/09/2022 6:39       0         
TS2              08/09/2022 6:49       0         
TS2              08/09/2022 6:59       0         
TS2              08/09/2022 7:09       0         
TS2              08/09/2022 7:19       0         
TS2              08/09/2022 7:29       0         
TS2              08/09/2022 7:39       0         
TS2              08/09/2022 7:49       0         
TS2              08/09/2022 7:59       0         
TS2              08/09/2022 8:09       0         
TS2              08/09/2022 8:19       0.5       
TS2              08/09/2022 8:29       0         
TS2              08/09/2022 8:39       0         
TS2              08/09/2022 8:49       0         
TS2              08/09/2022 8:59       0         
TS2              08/09/2022 9:09       0         
TS2              08/09/2022 9:19       0         
TS2              08/09/2022 9:29       0         
TS2              08/09/2022 9:39       0         
TS2              08/09/2022 9:49       0         
TS2              08/09/2022 9:59       0.5       
TS2              08/09/2022 10:09      1         
TS2              08/09/2022 10:19      0.5       
TS2              08/09/2022 10:29      1         
TS2              08/09/2022 10:39      0.5       
TS2              08/09/2022 10:49      0.5       
TS2              08/09/2022 10:59      0         
TS2              08/09/2022 11:09      0         
TS2              08/09/2022 11:19      0.5       
TS2              08/09/2022 11:29      1         
TS2              08/09/2022 11:39      0.5       
TS2              08/09/2022 11:49      1         
TS2              08/09/2022 11:59      1         
TS2              08/09/2022 12:09      1         
TS2              08/09/2022 12:19      1         
TS2              08/09/2022 12:29      1         
TS2              08/09/2022 12:39      1         
TS2              08/09/2022 12:49      1         
TS2              08/09/2022 12:59      0.5       
TS2              08/09/2022 13:09      1         
TS2              08/09/2022 13:19      0         
TS2              08/09/2022 13:29      0.5       
TS2              08/09/2022 13:39      0         
TS2              08/09/2022 13:49      0.5       
TS2              08/09/2022 13:59      0.5       
TS2              08/09/2022 14:09      0         
TS2              08/09/2022 14:19      0         
TS2              08/09/2022 14:29      0         
TS2              08/09/2022 14:39      0         
TS2              08/09/2022 14:49      0         
TS2              08/09/2022 14:59      0.5       
TS2              08/09/2022 15:09      0         
TS2              08/09/2022 15:19      0         
TS2              08/09/2022 15:29      0         
TS2              08/09/2022 15:39      0         
TS2              08/09/2022 15:49      0         
TS2              08/09/2022 15:59      0         
TS2              08/09/2022 16:09      0         
TS2              08/09/2022 16:19      0         
TS2              08/09/2022 16:29      0         
TS2              08/09/2022 16:39      0         
TS2              08/09/2022 16:49      0         
TS2              08/09/2022 16:59      0.5       
TS2              08/09/2022 17:09      0         
TS2              08/09/2022 17:19      0         
TS2              08/09/2022 17:29      0.5       
TS2              08/09/2022 17:39      0         
TS2              08/09/2022 17:49      0.5       
TS2              08/09/2022 17:59      0.5       
TS2              08/09/2022 18:09      1.5       
TS2              08/09/2022 18:19      1.5       
TS2              08/09/2022 18:29      1         
TS2              08/09/2022 18:39      1.5       
TS2              08/09/2022 18:49      1.5       
TS2              08/09/2022 18:59      1.5       
TS2              08/09/2022 19:09      1         
TS2              08/09/2022 19:19      1.5       
TS2              08/09/2022 19:29      1         
TS2              08/09/2022 19:39      1.5       
TS2              08/09/2022 19:49      1         
TS2              08/09/2022 19:59      1         
TS2              08/09/2022 20:09      1.5       
TS2              08/09/2022 20:19      1         
TS2              08/09/2022 20:29      1         
TS2              08/09/2022 20:39      1         
TS2              08/09/2022 20:49      1.5       
TS2              08/09/2022 20:59      1.5       
TS2              08/09/2022 21:09      1.5       
TS2              08/09/2022 21:19      1.5       
TS2              08/09/2022 21:29      1.5       
TS2              08/09/2022 21:39      1.5       
TS2              08/09/2022 21:49      1         
TS2              08/09/2022 21:59      1.5       
TS2              08/09/2022 22:09      1.5       
TS2              08/09/2022 22:19      1         
TS2              08/09/2022 22:29      1.5       
TS2              08/09/2022 22:39      1         
TS2              08/09/2022 22:49      1         
TS2              08/09/2022 22:59      1         
TS2              08/09/2022 23:09      1.5       
TS2              08/09/2022 23:19      1         
TS2              08/09/2022 23:29      1         
TS2              08/09/2022 23:39      1         
TS2              08/09/2022 23:49      1         
TS2              08/09/2022 23:59      1         
TS2              08/10/2022 0:09       0.5       
TS2              08/10/2022 0:19       0         
TS2              08/10/2022 0:29       0.5       
TS2              08/10/2022 0:39       0.5       
TS2              08/10/2022 0:49       2.5       
TS2              08/10/2022 0:59       1         
TS2              08/10/2022 1:09       0         
TS2              08/10/2022 1:19       0.5       
TS2              08/10/2022 1:29       0         
TS2              08/10/2022 1:39       0         
TS2              08/10/2022 1:49       0         
TS2              08/10/2022 1:59       0         
TS2              08/10/2022 2:09       0.5       
TS2              08/10/2022 2:19       0         
TS2              08/10/2022 2:29       0         
TS2              08/10/2022 2:39       0         
TS2              08/10/2022 2:49       0         
TS2              08/10/2022 2:59       0         
TS2              08/10/2022 3:09       0         
TS2              08/10/2022 3:19       0         
TS2              08/10/2022 3:29       0         
TS2              08/10/2022 3:39       0         
TS2              08/10/2022 3:49       0         
TS2              08/10/2022 3:59       0         
TS2              08/10/2022 4:09       0         
TS2              08/10/2022 4:19       0         
TS2              08/10/2022 4:29       0         
TS2              08/10/2022 4:39       0         
TS2              08/10/2022 4:49       0         
TS2              08/10/2022 4:59       0         
TS2              08/10/2022 5:09       0         
TS2              08/10/2022 5:19       0         
TS2              08/10/2022 5:29       0         
TS2              08/10/2022 5:39       0         
TS2              08/10/2022 5:49       0         
TS2              08/10/2022 5:59       0         
TS2              08/10/2022 6:09       0         
TS2              08/10/2022 6:19       0         
TS2              08/10/2022 6:29       0         
TS2              08/10/2022 6:39       0         
TS2              08/10/2022 6:49       0         
TS2              08/10/2022 6:59       0         
TS2              08/10/2022 7:09       0         
TS2              08/10/2022 7:19       0         
TS2              08/10/2022 7:29       0         
TS2              08/10/2022 7:39       0         
TS2              08/10/2022 7:49       0         
TS2              08/10/2022 7:59       0         
TS2              08/10/2022 8:09       0         
TS2              08/10/2022 8:19       0         
TS2              08/10/2022 8:29       0         
TS2              08/10/2022 8:39       0         
TS2              08/10/2022 8:49       0         
TS2              08/10/2022 8:59       0         
TS2              08/10/2022 9:09       0         
TS2              08/10/2022 9:19       0         
TS2              08/10/2022 9:29       0         
TS2              08/10/2022 9:39       0         
TS2              08/10/2022 9:49       0         
TS2              08/10/2022 9:59       0         
TS2              08/10/2022 10:09      0         
TS2              08/10/2022 10:19      0         
TS2              08/10/2022 10:29      0         
TS2              08/10/2022 10:39      0         
TS2              08/10/2022 10:49      0         
TS2              08/10/2022 10:59      0         
TS2              08/10/2022 11:09      0         
TS2              08/10/2022 11:19      0         
TS2              08/10/2022 11:29      0         
TS2              08/10/2022 11:39      0         
TS2              08/10/2022 11:49      0         
TS2              08/10/2022 11:59      0         
TS2              08/10/2022 12:09      0         
TS2              08/10/2022 12:19      0         
TS2              08/10/2022 12:29      0         
TS2              08/10/2022 12:39      0         
TS2              08/10/2022 12:49      0         
TS2              08/10/2022 12:59      0         
TS2              08/10/2022 13:09      0         
TS2              08/10/2022 13:19      0         
TS2              08/10/2022 13:29      0         
TS2              08/10/2022 13:39      0         
TS2              08/10/2022 13:49      0         
TS2              08/10/2022 13:59      0         
TS2              08/10/2022 14:09      0         
TS2              08/10/2022 14:19      0         
TS2              08/10/2022 14:29      0         
TS2              08/10/2022 14:39      0         
TS2              08/10/2022 14:49      0         
TS2              08/10/2022 14:59      0         
TS2              08/10/2022 15:09      0         
TS2              08/10/2022 15:19      0         
TS2              08/10/2022 15:29      0         
TS2              08/10/2022 15:39      0         
TS2              08/10/2022 15:49      0         
TS2              08/10/2022 15:59      0         
TS2              08/10/2022 16:09      0         
TS2              08/10/2022 16:19      0         
TS2              08/10/2022 16:29      0         
TS2              08/10/2022 16:39      0         
TS2              08/10/2022 16:49      0         
TS2              08/10/2022 16:59      0         
TS2              08/10/2022 17:09      0         
TS2              08/10/2022 17:19      0         
TS2              08/10/2022 17:29      0         
TS2              08/10/2022 17:39      0         
TS2              08/10/2022 17:49      0         
TS2              08/10/2022 17:59      0         
TS2              08/10/2022 18:09      0         
TS2              08/10/2022 18:19      0         
TS2              08/10/2022 18:29      0         
TS2              08/10/2022 18:39      0         
TS2              08/10/2022 18:49      0         
TS2              08/10/2022 18:59      0         
TS2              08/10/2022 19:09      0         
TS2              08/10/2022 19:19      0         
TS2              08/10/2022 19:29      0         
TS2              08/10/2022 19:39      0         
TS2              08/10/2022 19:49      0         
TS2              08/10/2022 19:59      0         
TS2              08/10/2022 20:09      0         
TS2              08/10/2022 20:19      0         
TS2              08/10/2022 20:29      0         
TS2              08/10/2022 20:39      0         
TS2              08/10/2022 20:49      0         
TS2              08/10/2022 20:59      0         
TS2              08/10/2022 21:09      0         
TS2              08/10/2022 21:19      0         
TS2              08/10/2022 21:29      0         
TS2              08/10/2022 21:39      0         
TS2              08/10/2022 21:49      0.5       
TS2              08/10/2022 21:59      0         
TS2              08/10/2022 22:09      0         
TS2              08/10/2022 22:19      0         
TS2              08/10/2022 22:29      0.5       
TS2              08/10/2022 22:39      0         
TS2              08/10/2022 22:49      0         
TS2              08/10/2022 22:59      0.5       
TS2              08/10/2022 23:09      0.5       
TS2              08/10/2022 23:19      1         
TS2              08/10/2022 23:29      0         
TS2              08/10/2022 23:39      0         
TS2              08/10/2022 23:49      0         
TS2              08/10/2022 23:59      0         
TS2              08/11/2022 0:09       0         
TS2              08/11/2022 0:19       0         
TS2              08/11/2022 0:29       0         
TS2              08/11/2022 0:39       0.5       
TS2              08/11/2022 0:49       0.5       
TS2              08/11/2022 0:59       0         
TS2              08/11/2022 1:09       0         
TS2              08/11/2022 1:19       0         
TS2              08/11/2022 1:29       0.5       
TS2              08/11/2022 1:39       1         
TS2              08/11/2022 1:49       1.5       
TS2              08/11/2022 1:59       1         
TS2              08/11/2022 2:09       1         
TS2              08/11/2022 2:19       3         
TS2              08/11/2022 2:29       1.5       
TS2              08/11/2022 2:39       0.5       
TS2              08/11/2022 2:49       0         
TS2              08/11/2022 2:59       0         
TS2              08/11/2022 3:09       0         
TS2              08/11/2022 3:19       0         
TS2              08/11/2022 3:29       0         
TS2              08/11/2022 3:39       0         
TS2              08/11/2022 3:49       0         
TS2              08/11/2022 3:59       0.5       
TS2              08/11/2022 4:09       2         
TS2              08/11/2022 4:19       10        
TS2              08/11/2022 4:29       4         
TS2              08/11/2022 4:39       5.5       
TS2              08/11/2022 4:49       4         
TS2              08/11/2022 4:59       2.5       
TS2              08/11/2022 5:09       1.5       
TS2              08/11/2022 5:19       1         
TS2              08/11/2022 5:29       0.5       
TS2              08/11/2022 5:39       1         
TS2              08/11/2022 5:49       0.5       
TS2              08/11/2022 5:59       0         
TS2              08/11/2022 6:09       1         
TS2              08/11/2022 6:19       0         
TS2              08/11/2022 6:29       0         
TS2              08/11/2022 6:39       0         
TS2              08/11/2022 6:49       0         
TS2              08/11/2022 6:59       0         
TS2              08/11/2022 7:09       1         
TS2              08/11/2022 7:19       0         
TS2              08/11/2022 7:29       0         
TS2              08/11/2022 7:39       0         
TS2              08/11/2022 7:49       0         
TS2              08/11/2022 7:59       0         
TS2              08/11/2022 8:09       0         
TS2              08/11/2022 8:19       0.5       
TS2              08/11/2022 8:29       0         
TS2              08/11/2022 8:39       0         
TS2              08/11/2022 8:49       0         
TS2              08/11/2022 8:59       0         
TS2              08/11/2022 9:09       0         
TS2              08/11/2022 9:19       0         
TS2              08/11/2022 9:29       0         
TS2              08/11/2022 9:39       0         
TS2              08/11/2022 9:49       0         
TS2              08/11/2022 9:59       0         
TS2              08/11/2022 10:09      0         
TS2              08/11/2022 10:19      0         
TS2              08/11/2022 10:29      0         
TS2              08/11/2022 10:39      0         
TS2              08/11/2022 10:49      0         
TS2              08/11/2022 10:59      0         
TS2              08/11/2022 11:09      0         
TS2              08/11/2022 11:19      0         
TS2              08/11/2022 11:29      0         
TS2              08/11/2022 11:39      0         
TS2              08/11/2022 11:49      0         
TS2              08/11/2022 11:59      0         
TS2              08/11/2022 12:09      0         
TS2              08/11/2022 12:19      0         
TS2              08/11/2022 12:29      0         
TS2              08/11/2022 12:39      0         
TS2              08/11/2022 12:49      0         
TS2              08/11/2022 12:59      0         
TS2              08/11/2022 13:09      0         
TS2              08/11/2022 13:19      0         
TS2              08/11/2022 13:29      0         
TS2              08/11/2022 13:39      0         
TS2              08/11/2022 13:49      0         
TS2              08/11/2022 13:59      0         
TS2              08/11/2022 14:09      0         
TS2              08/11/2022 14:19      0         
TS2              08/11/2022 14:29      0         
TS2              08/11/2022 14:39      0         
TS2              08/11/2022 14:49      0         
TS2              08/11/2022 14:59      0         
TS2              08/11/2022 15:09      0         
TS2              08/11/2022 15:19      0         
TS2              08/11/2022 15:29      0         
TS2              08/11/2022 15:39      0         
TS2              08/11/2022 15:49      0         
TS2              08/11/2022 15:59      0         
TS2              08/11/2022 16:09      0         
TS2              08/11/2022 16:19      0         
TS2              08/11/2022 16:29      0         
TS2              08/11/2022 16:39      0         
TS2              08/11/2022 16:49      0         
TS2              08/11/2022 16:59      0         
TS2              08/11/2022 17:09      0         
TS2              08/11/2022 17:19      0         
TS2              08/11/2022 17:29      0         
TS2              08/11/2022 17:39      0         
TS2              08/11/2022 17:49      0         
TS2              08/11/2022 17:59      0         
TS2              08/11/2022 18:09      0         
TS2              08/11/2022 18:19      0         
TS2              08/11/2022 18:29      0         
TS2              08/11/2022 18:39      0         
TS2              08/11/2022 18:49      0         
TS2              08/11/2022 18:59      0         
TS2              08/11/2022 19:09      0         
TS2              08/11/2022 19:19      0         
TS2              08/11/2022 19:29      0         
TS2              08/11/2022 19:39      0         
TS2              08/11/2022 19:49      0         
TS2              08/11/2022 19:59      0         
TS2              08/11/2022 20:09      0         
TS2              08/11/2022 20:19      0         
TS2              08/11/2022 20:29      0         
TS2              08/11/2022 20:39      0         
TS2              08/11/2022 20:49      0         
TS2              08/11/2022 20:59      0         
TS2              08/11/2022 21:09      0         
TS2              08/11/2022 21:19      0         
TS2              08/11/2022 21:29      0         
TS2              08/11/2022 21:39      0         
TS2              08/11/2022 21:49      0         
TS2              08/11/2022 21:59      0         
TS2              08/11/2022 22:09      0         
TS2              08/11/2022 22:19      0         
TS2              08/11/2022 22:29      0         
TS2              08/11/2022 22:39      0         
TS2              08/11/2022 22:49      0         
TS2              08/11/2022 22:59      0         
TS2              08/11/2022 23:09      0         
TS2              08/11/2022 23:19      0         
TS2              08/11/2022 23:29      0         
TS2              08/11/2022 23:39      0         
TS2              08/11/2022 23:49      0         
TS2              08/11/2022 23:59      0         
;
Thiessen         08/08/2022 12:09      0.436158668
Thiessen         08/08/2022 12:19      0.689252418
Thiessen         08/08/2022 12:29      3.4403619 
Thiessen         08/08/2022 12:39      8.151647208
Thiessen         08/08/2022 12:49      6.792942706
Thiessen         08/08/2022 12:59      8.350624371
Thiessen         08/08/2022 13:09      9.232320794
Thiessen         08/08/2022 13:19      5.632869708
Thiessen         08/08/2022 13:29      0.916726095
Thiessen         08/08/2022 13:39      0.5       
Thiessen         08/08/2022 13:49      0.416726095
Thiessen         08/08/2022 13:59      0.789043431
Thiessen         08/08/2022 14:09      0.5       
Thiessen         08/08/2022 14:19      0.5       
Thiessen         08/08/2022 14:29      0.436158668
Thiessen         08/08/2022 14:39      0.5       
Thiessen         08/08/2022 14:49      0.147115237
Thiessen         08/08/2022 14:59      0.29131501
Thiessen         08/08/2022 15:09      0.00227158
Thiessen         08/08/2022 15:19      0         
Thiessen         08/08/2022 15:29      3.077774767
Thiessen         08/08/2022 15:39      2.816918437
Thiessen         08/08/2022 15:49      0.49772842
Thiessen         08/08/2022 15:59      0.20868499
Thiessen         08/08/2022 16:09      0.5       
Thiessen         08/08/2022 16:19      0.29131501
Thiessen         08/08/2022 16:29      0         
Thiessen         08/08/2022 16:39      0         
Thiessen         08/08/2022 16:49      0.144843657
Thiessen         08/08/2022 16:59      0         
Thiessen         08/08/2022 17:09      0         
Thiessen         08/08/2022 17:19      0         
Thiessen         08/08/2022 17:29      0         
Thiessen         08/08/2022 17:39      0.20641341
Thiessen         08/08/2022 17:49      6.132178666
Thiessen         08/08/2022 17:59      9.696022678
Thiessen         08/08/2022 18:09      0.919641559
Thiessen         08/08/2022 18:19      1         
Thiessen         08/08/2022 18:29      1.141928194
Thiessen         08/08/2022 18:39      0.50227158
Thiessen         08/08/2022 18:49      0.00227158
Thiessen         08/08/2022 18:59      0.147115237
Thiessen         08/08/2022 19:09      0         
Thiessen         08/08/2022 19:19      0.144843657
Thiessen         08/08/2022 19:29      0.430988269
Thiessen         08/08/2022 19:39      9.465569733
Thiessen         08/08/2022 19:49      9.474355146
Thiessen         08/08/2022 19:59      9.240050084
Thiessen         08/08/2022 20:09      13.01061119
Thiessen         08/08/2022 20:19      15.75626324
Thiessen         08/08/2022 20:29      16.12994306
Thiessen         08/08/2022 20:39      16.53897164
Thiessen         08/08/2022 20:49      16.4885157
Thiessen         08/08/2022 20:59      14.31076607
Thiessen         08/08/2022 21:09      19.31339767
Thiessen         08/08/2022 21:19      17.47525716
Thiessen         08/08/2022 21:29      12.11747294
Thiessen         08/08/2022 21:39      4.525171521
Thiessen         08/08/2022 21:49      9.149640884
Thiessen         08/08/2022 21:59      10.15002855
Thiessen         08/08/2022 22:09      15.4430482
Thiessen         08/08/2022 22:19      8.807094537
Thiessen         08/08/2022 22:29      6.812275703
Thiessen         08/08/2022 22:39      7.659656572
Thiessen         08/08/2022 22:49      9.624122721
Thiessen         08/08/2022 22:59      4.318925481
Thiessen         08/08/2022 23:09      7.30856315
Thiessen         08/08/2022 23:19      3.502978246
Thiessen         08/08/2022 23:29      1.161859491
Thiessen         08/08/2022 23:39      1.174812405
Thiessen         08/08/2022 23:49      0.355540281
Thiessen         08/08/2022 23:59      0.16518438
Thiessen         08/09/2022 0:09       0.005181165
Thiessen         08/09/2022 0:19       0.5       
Thiessen         08/09/2022 0:29       0         
Thiessen         08/09/2022 0:39       0         
Thiessen         08/09/2022 0:49       0.16518438
Thiessen         08/09/2022 0:59       0         
Thiessen         08/09/2022 1:09       0         
Thiessen         08/09/2022 1:19       0         
Thiessen         08/09/2022 1:29       0         
Thiessen         08/09/2022 1:39       0.332225037
Thiessen         08/09/2022 1:49       2.158534602
Thiessen         08/09/2022 1:59       0.497409417
Thiessen         08/09/2022 2:09       0.998143724
Thiessen         08/09/2022 2:19       5.507037442
Thiessen         08/09/2022 2:29       7.3211284 
Thiessen         08/09/2022 2:39       4.149640884
Thiessen         08/09/2022 2:49       2.001856276
Thiessen         08/09/2022 2:59       0.683318459
Thiessen         08/09/2022 3:09       1.494818835
Thiessen         08/09/2022 3:19       1.164450074
Thiessen         08/09/2022 3:29       1.999265694
Thiessen         08/09/2022 3:39       0.497409417
Thiessen         08/09/2022 3:49       0         
Thiessen         08/09/2022 3:59       0.662593798
Thiessen         08/09/2022 4:09       2.825921902
Thiessen         08/09/2022 4:19       3.499265694
Thiessen         08/09/2022 4:29       0.33481562
Thiessen         08/09/2022 4:39       0         
Thiessen         08/09/2022 4:49       0         
Thiessen         08/09/2022 4:59       0.16518438
Thiessen         08/09/2022 5:09       0.332225037
Thiessen         08/09/2022 5:19       0.332225037
Thiessen         08/09/2022 5:29       0.002590583
Thiessen         08/09/2022 5:39       0.16518438
Thiessen         08/09/2022 5:49       0.33481562
Thiessen         08/09/2022 5:59       0.16518438
Thiessen         08/09/2022 6:09       0.167774963
Thiessen         08/09/2022 6:19       0.332225037
Thiessen         08/09/2022 6:29       0         
Thiessen         08/09/2022 6:39       0         
Thiessen         08/09/2022 6:49       0         
Thiessen         08/09/2022 6:59       0.16518438
Thiessen         08/09/2022 7:09       0         
Thiessen         08/09/2022 7:19       0         
Thiessen         08/09/2022 7:29       0         
Thiessen         08/09/2022 7:39       0         
Thiessen         08/09/2022 7:49       0.332225037
Thiessen         08/09/2022 7:59       0         
Thiessen         08/09/2022 8:09       0         
Thiessen         08/09/2022 8:19       0         
Thiessen         08/09/2022 8:29       0         
Thiessen         08/09/2022 8:39       0         
Thiessen         08/09/2022 8:49       0         
Thiessen         08/09/2022 8:59       0         
Thiessen         08/09/2022 9:09       0         
Thiessen         08/09/2022 9:19       0         
Thiessen         08/09/2022 9:29       0.332225037
Thiessen         08/09/2022 9:39       0.16518438
Thiessen         08/09/2022 9:49       0.335549926
Thiessen         08/09/2022 9:59       1.496675111
Thiessen         08/09/2022 10:09      0.332225037
Thiessen         08/09/2022 10:19      0.497409417
Thiessen         08/09/2022 10:29      0.337406202
Thiessen         08/09/2022 10:39      0         
Thiessen         08/09/2022 10:49      0.16518438
Thiessen         08/09/2022 10:59      0.332225037
Thiessen         08/09/2022 11:09      0.664450074
Thiessen         08/09/2022 11:19      1.164450074
Thiessen         08/09/2022 11:29      1.664450074
Thiessen         08/09/2022 11:39      2.828900148
Thiessen         08/09/2022 11:49      1         
Thiessen         08/09/2022 11:59      1         
Thiessen         08/09/2022 12:09      0.832225037
Thiessen         08/09/2022 12:19      2.825187595
Thiessen         08/09/2022 12:29      0.675546711
Thiessen         08/09/2022 12:39      0.172956128
Thiessen         08/09/2022 12:49      0.167774963
Thiessen         08/09/2022 12:59      0.332225037
Thiessen         08/09/2022 13:09      0.167774963
Thiessen         08/09/2022 13:19      0.866636918
Thiessen         08/09/2022 13:29      0.005181165
Thiessen         08/09/2022 13:39      0.502590583
Thiessen         08/09/2022 13:49      0.667040657
Thiessen         08/09/2022 13:59      0.16518438
Thiessen         08/09/2022 14:09      0.332225037
Thiessen         08/09/2022 14:19      0         
Thiessen         08/09/2022 14:29      0         
Thiessen         08/09/2022 14:39      0.16518438
Thiessen         08/09/2022 14:49      0         
Thiessen         08/09/2022 14:59      0         
Thiessen         08/09/2022 15:09      0         
Thiessen         08/09/2022 15:19      0.332225037
Thiessen         08/09/2022 15:29      0         
Thiessen         08/09/2022 15:39      0         
Thiessen         08/09/2022 15:49      0         
Thiessen         08/09/2022 15:59      0.002590583
Thiessen         08/09/2022 16:09      0.16518438
Thiessen         08/09/2022 16:19      0         
Thiessen         08/09/2022 16:29      0.33481562
Thiessen         08/09/2022 16:39      0         
Thiessen         08/09/2022 16:49      0.16518438
Thiessen         08/09/2022 16:59      0.002590583
Thiessen         08/09/2022 17:09      0.497409417
Thiessen         08/09/2022 17:19      0.005181165
Thiessen         08/09/2022 17:29      0.16518438
Thiessen         08/09/2022 17:39      1         
Thiessen         08/09/2022 17:49      2.332959343
Thiessen         08/09/2022 17:59      9.187418676
Thiessen         08/09/2022 18:09      2.658534602
Thiessen         08/09/2022 18:19      0.837406202
Thiessen         08/09/2022 18:29      0.997409417
Thiessen         08/09/2022 18:39      1         
Thiessen         08/09/2022 18:49      0.66518438
Thiessen         08/09/2022 18:59      0.995553141
Thiessen         08/09/2022 19:09      1.164450074
Thiessen         08/09/2022 19:19      0.5       
Thiessen         08/09/2022 19:29      0.832225037
Thiessen         08/09/2022 19:39      0.33481562
Thiessen         08/09/2022 19:49      1.330368761
Thiessen         08/09/2022 19:59      1.835549926
Thiessen         08/09/2022 20:09      1.667774963
Thiessen         08/09/2022 20:19      0.667774963
Thiessen         08/09/2022 20:29      2.494084528
Thiessen         08/09/2022 20:39      2.177402987
Thiessen         08/09/2022 20:49      2.524049551
Thiessen         08/09/2022 20:59      5.147437965
Thiessen         08/09/2022 21:09      0.667040657
Thiessen         08/09/2022 21:19      0.16518438
Thiessen         08/09/2022 21:29      0         
Thiessen         08/09/2022 21:39      0         
Thiessen         08/09/2022 21:49      0.5       
Thiessen         08/09/2022 21:59      0.332225037
Thiessen         08/09/2022 22:09      0         
Thiessen         08/09/2022 22:19      0         
Thiessen         08/09/2022 22:29      0.66518438
Thiessen         08/09/2022 22:39      2.021458968
Thiessen         08/09/2022 22:49      6.824106646
Thiessen         08/09/2022 22:59      0.664450074
Thiessen         08/09/2022 23:09      0         
Thiessen         08/09/2022 23:19      0.002590583
Thiessen         08/09/2022 23:29      0         
Thiessen         08/09/2022 23:39      0.503324889
Thiessen         08/09/2022 23:49      1.175546711
Thiessen         08/09/2022 23:59      2.329634454
Thiessen         08/10/2022 0:09       0.002590583
Thiessen         08/10/2022 0:19       0.167774963
Thiessen         08/10/2022 0:29       0.332225037
Thiessen         08/10/2022 0:39       0.678137294
Thiessen         08/10/2022 0:49       2.329634454
Thiessen         08/10/2022 0:59       1.167774963
Thiessen         08/10/2022 1:09       0.505915472
Thiessen         08/10/2022 1:19       0.33481562
Thiessen         08/10/2022 1:29       0         
Thiessen         08/10/2022 1:39       0.16518438
Thiessen         08/10/2022 1:49       0         
Thiessen         08/10/2022 1:59       0         
Thiessen         08/10/2022 2:09       0.332225037
Thiessen         08/10/2022 2:19       0         
Thiessen         08/10/2022 2:29       0         
Thiessen         08/10/2022 2:39       0         
Thiessen         08/10/2022 2:49       0.002590583
Thiessen         08/10/2022 2:59       0         
Thiessen         08/10/2022 3:09       0         
Thiessen         08/10/2022 3:19       0         
Thiessen         08/10/2022 3:29       0         
Thiessen         08/10/2022 3:39       0         
Thiessen         08/10/2022 3:49       0         
Thiessen         08/10/2022 3:59       0         
Thiessen         08/10/2022 4:09       0         
Thiessen         08/10/2022 4:19       0         
Thiessen         08/10/2022 4:29       0         
Thiessen         08/10/2022 4:39       0         
Thiessen         08/10/2022 4:49       0         
Thiessen         08/10/2022 4:59       0         
Thiessen         08/10/2022 5:09       0         
Thiessen         08/10/2022 5:19       0         
Thiessen         08/10/2022 5:29       0         
Thiessen         08/10/2022 5:39       0         
Thiessen         08/10/2022 5:49       0         
Thiessen         08/10/2022 5:59       0         
Thiessen         08/10/2022 6:09       0         
Thiessen         08/10/2022 6:19       0         
Thiessen         08/10/2022 6:29       0         
Thiessen         08/10/2022 6:39       0         
Thiessen         08/10/2022 6:49       0         
Thiessen         08/10/2022 6:59       0         
Thiessen         08/10/2022 7:09       0         
Thiessen         08/10/2022 7:19       0         
Thiessen         08/10/2022 7:29       0         
Thiessen         08/10/2022 7:39       0         
Thiessen         08/10/2022 7:49       0         
Thiessen         08/10/2022 7:59       0         
Thiessen         08/10/2022 8:09       0         
Thiessen         08/10/2022 8:19       0         
Thiessen         08/10/2022 8:29       0         
Thiessen         08/10/2022 8:39       0         
Thiessen         08/10/2022 8:49       0         
Thiessen         08/10/2022 8:59       0         
Thiessen         08/10/2022 9:09       0         
Thiessen         08/10/2022 9:19       0         
Thiessen         08/10/2022 9:29       0         
Thiessen         08/10/2022 9:39       0         
Thiessen         08/10/2022 9:49       0         
Thiessen         08/10/2022 9:59       0         
Thiessen         08/10/2022 10:09      0         
Thiessen         08/10/2022 10:19      0         
Thiessen         08/10/2022 10:29      0         
Thiessen         08/10/2022 10:39      0         
Thiessen         08/10/2022 10:49      0         
Thiessen         08/10/2022 10:59      0         
Thiessen         08/10/2022 11:09      0         
Thiessen         08/10/2022 11:19      0         
Thiessen         08/10/2022 11:29      0         
Thiessen         08/10/2022 11:39      0         
Thiessen         08/10/2022 11:49      0         
Thiessen         08/10/2022 11:59      0         
Thiessen         08/10/2022 12:09      0         
Thiessen         08/10/2022 12:19      0         
Thiessen         08/10/2022 12:29      0         
Thiessen         08/10/2022 12:39      0         
Thiessen         08/10/2022 12:49      0         
Thiessen         08/10/2022 12:59      0         
Thiessen         08/10/2022 13:09      0         
Thiessen         08/10/2022 13:19      0         
Thiessen         08/10/2022 13:29      0         
Thiessen         08/10/2022 13:39      0         
Thiessen         08/10/2022 13:49      0         
Thiessen         08/10/2022 13:59      0         
Thiessen         08/10/2022 14:09      0         
Thiessen         08/10/2022 14:19      0         
Thiessen         08/10/2022 14:29      0         
Thiessen         08/10/2022 14:39      0         
Thiessen         08/10/2022 14:49      0         
Thiessen         08/10/2022 14:59      0         
Thiessen         08/10/2022 15:09      0         
Thiessen         08/10/2022 15:19      0         
Thiessen         08/10/2022 15:29      0         
Thiessen         08/10/2022 15:39      0         
Thiessen         08/10/2022 15:49      0         
Thiessen         08/10/2022 15:59      0         
Thiessen         08/10/2022 16:09      0         
Thiessen         08/10/2022 16:19      0         
Thiessen         08/10/2022 16:29      0         
Thiessen         08/10/2022 16:39      0         
Thiessen         08/10/2022 16:49      0         
Thiessen         08/10/2022 16:59      0         
Thiessen         08/10/2022 17:09      0         
Thiessen         08/10/2022 17:19      0         
Thiessen         08/10/2022 17:29      0         
Thiessen         08/10/2022 17:39      0         
Thiessen         08/10/2022 17:49      0         
Thiessen         08/10/2022 17:59      0         
Thiessen         08/10/2022 18:09      0         
Thiessen         08/10/2022 18:19      0         
Thiessen         08/10/2022 18:29      0         
Thiessen         08/10/2022 18:39      0         
Thiessen         08/10/2022 18:49      0         
Thiessen         08/10/2022 18:59      0         
Thiessen         08/10/2022 19:09      0         
Thiessen         08/10/2022 19:19      0         
Thiessen         08/10/2022 19:29      0         
Thiessen         08/10/2022 19:39      0         
Thiessen         08/10/2022 19:49      0         
Thiessen         08/10/2022 19:59      0         
Thiessen         08/10/2022 20:09      0         
Thiessen         08/10/2022 20:19      0         
Thiessen         08/10/2022 20:29      0         
Thiessen         08/10/2022 20:39      0         
Thiessen         08/10/2022 20:49      0         
Thiessen         08/10/2022 20:59      0         
Thiessen         08/10/2022 21:09      0         
Thiessen         08/10/2022 21:19      0         
Thiessen         08/10/2022 21:29      0         
Thiessen         08/10/2022 21:39      0         
Thiessen         08/10/2022 21:49      0.497409417
Thiessen         08/10/2022 21:59      0.002590583
Thiessen         08/10/2022 22:09      0         
Thiessen         08/10/2022 22:19      0.16518438
Thiessen         08/10/2022 22:29      0.332225037
Thiessen         08/10/2022 22:39      0.002590583
Thiessen         08/10/2022 22:49      0.16518438
Thiessen         08/10/2022 22:59      0.332225037
Thiessen         08/10/2022 23:09      0.5       
Thiessen         08/10/2022 23:19      0.83481562
Thiessen         08/10/2022 23:29      0         
Thiessen         08/10/2022 23:39      0         
Thiessen         08/10/2022 23:49      0         
Thiessen         08/10/2022 23:59      0.16518438
Thiessen         08/11/2022 0:09       0         
Thiessen         08/11/2022 0:19       0         
Thiessen         08/11/2022 0:29       0         
Thiessen         08/11/2022 0:39       0.332225037
Thiessen         08/11/2022 0:49       0.332225037
Thiessen         08/11/2022 0:59       0         
Thiessen         08/11/2022 1:09       0         
Thiessen         08/11/2022 1:19       0         
Thiessen         08/11/2022 1:29       0.502590583
Thiessen         08/11/2022 1:39       0.997409417
Thiessen         08/11/2022 1:49       1.332225037
Thiessen         08/11/2022 1:59       0.832225037
Thiessen         08/11/2022 2:09       1.002590583
Thiessen         08/11/2022 2:19       2.331490731
Thiessen         08/11/2022 2:29       1.329634454
Thiessen         08/11/2022 2:39       0.5       
Thiessen         08/11/2022 2:49       0.002590583
Thiessen         08/11/2022 2:59       0         
Thiessen         08/11/2022 3:09       0         
Thiessen         08/11/2022 3:19       0         
Thiessen         08/11/2022 3:29       0         
Thiessen         08/11/2022 3:39       0.002590583
Thiessen         08/11/2022 3:49       0.16518438
Thiessen         08/11/2022 3:59       0.667774963
Thiessen         08/11/2022 4:09       1.839996785
Thiessen         08/11/2022 4:19       9.988393988
Thiessen         08/11/2022 4:29       4.030949365
Thiessen         08/11/2022 4:39       5.511606012
Thiessen         08/11/2022 4:49       3.996131329
Thiessen         08/11/2022 4:59       2.5       
Thiessen         08/11/2022 5:09       1.511606012
Thiessen         08/11/2022 5:19       1.007737341
Thiessen         08/11/2022 5:29       0.5       
Thiessen         08/11/2022 5:39       0.996131329
Thiessen         08/11/2022 5:49       0.5       
Thiessen         08/11/2022 5:59       0         
Thiessen         08/11/2022 6:09       0.992262659
Thiessen         08/11/2022 6:19       0.003868671
Thiessen         08/11/2022 6:29       0         
Thiessen         08/11/2022 6:39       0         
Thiessen         08/11/2022 6:49       0         
Thiessen         08/11/2022 6:59       0         
Thiessen         08/11/2022 7:09       0.996131329
Thiessen         08/11/2022 7:19       0         
Thiessen         08/11/2022 7:29       0         
Thiessen         08/11/2022 7:39       0         
Thiessen         08/11/2022 7:49       0         
Thiessen         08/11/2022 7:59       0         
Thiessen         08/11/2022 8:09       0         
Thiessen         08/11/2022 8:19       0.496131329
Thiessen         08/11/2022 8:29       0         
Thiessen         08/11/2022 8:39       0         
Thiessen         08/11/2022 8:49       0         
Thiessen         08/11/2022 8:59       0         
Thiessen         08/11/2022 9:09       0         
Thiessen         08/11/2022 9:19       0         
Thiessen         08/11/2022 9:29       0         
Thiessen         08/11/2022 9:39       0         
Thiessen         08/11/2022 9:49       0         
Thiessen         08/11/2022 9:59       0         
Thiessen         08/11/2022 10:09      0         
Thiessen         08/11/2022 10:19      0         
Thiessen         08/11/2022 10:29      0         
Thiessen         08/11/2022 10:39      0         
Thiessen         08/11/2022 10:49      0         
Thiessen         08/11/2022 10:59      0         
Thiessen         08/11/2022 11:09      0         
Thiessen         08/11/2022 11:19      0         
Thiessen         08/11/2022 11:29      0         
Thiessen         08/11/2022 11:39      0         
Thiessen         08/11/2022 11:49      0         
Thiessen         08/11/2022 11:59      0         
Thiessen         08/11/2022 12:09      0         
Thiessen         08/11/2022 12:19      0         
Thiessen         08/11/2022 12:29      0         
Thiessen         08/11/2022 12:39      0         
Thiessen         08/11/2022 12:49      0         
Thiessen         08/11/2022 12:59      0         
Thiessen         08/11/2022 13:09      0         
Thiessen         08/11/2022 13:19      0         
Thiessen         08/11/2022 13:29      0         
Thiessen         08/11/2022 13:39      0         
Thiessen         08/11/2022 13:49      0         
Thiessen         08/11/2022 13:59      0         
Thiessen         08/11/2022 14:09      0         
Thiessen         08/11/2022 14:19      0         
Thiessen         08/11/2022 14:29      0         
Thiessen         08/11/2022 14:39      0         
Thiessen         08/11/2022 14:49      0         
Thiessen         08/11/2022 14:59      0         
Thiessen         08/11/2022 15:09      0         
Thiessen         08/11/2022 15:19      0         
Thiessen         08/11/2022 15:29      0         
Thiessen         08/11/2022 15:39      0         
Thiessen         08/11/2022 15:49      0         
Thiessen         08/11/2022 15:59      0         
Thiessen         08/11/2022 16:09      0         
Thiessen         08/11/2022 16:19      0         
Thiessen         08/11/2022 16:29      0         
Thiessen         08/11/2022 16:39      0         
Thiessen         08/11/2022 16:49      0         
Thiessen         08/11/2022 16:59      0         
Thiessen         08/11/2022 17:09      0         
Thiessen         08/11/2022 17:19      0         
Thiessen         08/11/2022 17:29      0         
Thiessen         08/11/2022 17:39      0         
Thiessen         08/11/2022 17:49      0         
Thiessen         08/11/2022 17:59      0         
Thiessen         08/11/2022 18:09      0         
Thiessen         08/11/2022 18:19      0         
Thiessen         08/11/2022 18:29      0         
Thiessen         08/11/2022 18:39      0         
Thiessen         08/11/2022 18:49      0         
Thiessen         08/11/2022 18:59      0         
Thiessen         08/11/2022 19:09      0         
Thiessen         08/11/2022 19:19      0         
Thiessen         08/11/2022 19:29      0         
Thiessen         08/11/2022 19:39      0         
Thiessen         08/11/2022 19:49      0         
Thiessen         08/11/2022 19:59      0         
Thiessen         08/11/2022 20:09      0         
Thiessen         08/11/2022 20:19      0         
Thiessen         08/11/2022 20:29      0         
Thiessen         08/11/2022 20:39      0         
Thiessen         08/11/2022 20:49      0         
Thiessen         08/11/2022 20:59      0         
Thiessen         08/11/2022 21:09      0         
Thiessen         08/11/2022 21:19      0         
Thiessen         08/11/2022 21:29      0         
Thiessen         08/11/2022 21:39      0         
Thiessen         08/11/2022 21:49      0         
Thiessen         08/11/2022 21:59      0         
Thiessen         08/11/2022 22:09      0         
Thiessen         08/11/2022 22:19      0         
Thiessen         08/11/2022 22:29      0         
Thiessen         08/11/2022 22:39      0         
Thiessen         08/11/2022 22:49      0         
Thiessen         08/11/2022 22:59      0         
Thiessen         08/11/2022 23:09      0         
Thiessen         08/11/2022 23:19      0         
Thiessen         08/11/2022 23:29      0         
Thiessen         08/11/2022 23:39      0         
Thiessen         08/11/2022 23:49      0         
Thiessen         08/11/2022 23:59      0         
;
Thiessen_half    08/08/2022 12:09      0.436158668
Thiessen_half    08/08/2022 12:19      0.689252418
Thiessen_half    08/08/2022 12:29      3.4403619 
Thiessen_half    08/08/2022 12:39      8.151647208
Thiessen_half    08/08/2022 12:49      6.792942706
Thiessen_half    08/08/2022 12:59      8.350624371
Thiessen_half    08/08/2022 13:09      9.232320794
Thiessen_half    08/08/2022 13:19      5.632869708
Thiessen_half    08/08/2022 13:29      0.916726095
Thiessen_half    08/08/2022 13:39      0.5       
Thiessen_half    08/08/2022 13:49      0.416726095
Thiessen_half    08/08/2022 13:59      0.789043431
Thiessen_half    08/08/2022 14:09      0.5       
Thiessen_half    08/08/2022 14:19      0.5       
Thiessen_half    08/08/2022 14:29      0.436158668
Thiessen_half    08/08/2022 14:39      0.5       
Thiessen_half    08/08/2022 14:49      0.147115237
Thiessen_half    08/08/2022 14:59      0.29131501
Thiessen_half    08/08/2022 15:09      0.00227158
Thiessen_half    08/08/2022 15:19      0         
Thiessen_half    08/08/2022 15:29      3.077774767
Thiessen_half    08/08/2022 15:39      2.816918437
Thiessen_half    08/08/2022 15:49      0.49772842
Thiessen_half    08/08/2022 15:59      0.20868499
Thiessen_half    08/08/2022 16:09      0.5       
Thiessen_half    08/08/2022 16:19      0.29131501
Thiessen_half    08/08/2022 16:29      0         
Thiessen_half    08/08/2022 16:39      0         
Thiessen_half    08/08/2022 16:49      0.144843657
Thiessen_half    08/08/2022 16:59      0         
Thiessen_half    08/08/2022 17:09      0         
Thiessen_half    08/08/2022 17:19      0         
Thiessen_half    08/08/2022 17:29      0         
Thiessen_half    08/08/2022 17:39      0.20641341
Thiessen_half    08/08/2022 17:49      6.132178666
Thiessen_half    08/08/2022 17:59      9.696022678
Thiessen_half    08/08/2022 18:09      0.919641559
Thiessen_half    08/08/2022 18:19      1         
Thiessen_half    08/08/2022 18:29      1.141928194
Thiessen_half    08/08/2022 18:39      0.50227158
Thiessen_half    08/08/2022 18:49      0.00227158
Thiessen_half    08/08/2022 18:59      0.147115237
Thiessen_half    08/08/2022 19:09      0         
Thiessen_half    08/08/2022 19:19      0.144843657
Thiessen_half    08/08/2022 19:29      0.430988269
Thiessen_half    08/08/2022 19:39      9.465569733
Thiessen_half    08/08/2022 19:49      9.474355146
Thiessen_half    08/08/2022 19:59      9.240050084
Thiessen_half    08/08/2022 20:09      13.01061119
Thiessen_half    08/08/2022 20:19      15.75626324
Thiessen_half    08/08/2022 20:29      16.12994306
Thiessen_half    08/08/2022 20:39      16.53897164
Thiessen_half    08/08/2022 20:49      16.4885157
Thiessen_half    08/08/2022 20:59      14.31076607
Thiessen_half    08/08/2022 21:09      19.31339767
Thiessen_half    08/08/2022 21:19      17.47525716
Thiessen_half    08/08/2022 21:29      12.11747294
Thiessen_half    08/08/2022 21:39      4.525171521
Thiessen_half    08/08/2022 21:49      9.149640884
Thiessen_half    08/08/2022 21:59      10.15002855
Thiessen_half    08/08/2022 22:09      15.4430482
Thiessen_half    08/08/2022 22:19      8.807094537
Thiessen_half    08/08/2022 22:29      6.812275703
Thiessen_half    08/08/2022 22:39      7.659656572
Thiessen_half    08/08/2022 22:49      9.624122721
Thiessen_half    08/08/2022 22:59      4.318925481
Thiessen_half    08/08/2022 23:09      7.30856315
Thiessen_half    08/08/2022 23:19      3.502978246
Thiessen_half    08/08/2022 23:29      1.161859491
Thiessen_half    08/08/2022 23:39      1.174812405
Thiessen_half    08/08/2022 23:49      0.355540281
Thiessen_half    08/08/2022 23:59      0.16518438
Thiessen_half    08/09/2022 0:09       0.005181165
Thiessen_half    08/09/2022 0:19       0.5       
Thiessen_half    08/09/2022 0:29       0         
Thiessen_half    08/09/2022 0:39       0         
Thiessen_half    08/09/2022 0:49       0.16518438
Thiessen_half    08/09/2022 0:59       0         
Thiessen_half    08/09/2022 1:09       0         
Thiessen_half    08/09/2022 1:19       0         
Thiessen_half    08/09/2022 1:29       0         
Thiessen_half    08/09/2022 1:39       0.332225037
Thiessen_half    08/09/2022 1:49       2.158534602
Thiessen_half    08/09/2022 1:59       0.497409417
Thiessen_half    08/09/2022 2:09       0.998143724
Thiessen_half    08/09/2022 2:19       5.507037442
Thiessen_half    08/09/2022 2:29       7.3211284 
Thiessen_half    08/09/2022 2:39       4.149640884
Thiessen_half    08/09/2022 2:49       2.001856276
Thiessen_half    08/09/2022 2:59       0.683318459
Thiessen_half    08/09/2022 3:09       1.494818835
Thiessen_half    08/09/2022 3:19       1.164450074
Thiessen_half    08/09/2022 3:29       1.999265694
Thiessen_half    08/09/2022 3:39       0.497409417
Thiessen_half    08/09/2022 3:49       0         
Thiessen_half    08/09/2022 3:59       0.662593798
Thiessen_half    08/09/2022 4:09       2.825921902
Thiessen_half    08/09/2022 4:19       3.499265694
Thiessen_half    08/09/2022 4:29       0.33481562
Thiessen_half    08/09/2022 4:39       0         
Thiessen_half    08/09/2022 4:49       0         
Thiessen_half    08/09/2022 4:59       0.16518438
Thiessen_half    08/09/2022 5:09       0.332225037
Thiessen_half    08/09/2022 5:19       0.332225037
Thiessen_half    08/09/2022 5:29       0.002590583
Thiessen_half    08/09/2022 5:39       0.16518438
Thiessen_half    08/09/2022 5:49       0.33481562
Thiessen_half    08/09/2022 5:59       0.16518438
Thiessen_half    08/09/2022 6:09       0.167774963
Thiessen_half    08/09/2022 6:19       0.332225037
Thiessen_half    08/09/2022 6:29       0         
Thiessen_half    08/09/2022 6:39       0         
Thiessen_half    08/09/2022 6:49       0         
Thiessen_half    08/09/2022 6:59       0.16518438
Thiessen_half    08/09/2022 7:09       0         
Thiessen_half    08/09/2022 7:19       0         
Thiessen_half    08/09/2022 7:29       0         
Thiessen_half    08/09/2022 7:39       0         
Thiessen_half    08/09/2022 7:49       0.332225037
Thiessen_half    08/09/2022 7:59       0         
Thiessen_half    08/09/2022 8:09       0         
Thiessen_half    08/09/2022 8:19       0         
Thiessen_half    08/09/2022 8:29       0         
Thiessen_half    08/09/2022 8:39       0         
Thiessen_half    08/09/2022 8:49       0         
Thiessen_half    08/09/2022 8:59       0         
Thiessen_half    08/09/2022 9:09       0         
Thiessen_half    08/09/2022 9:19       0         
Thiessen_half    08/09/2022 9:29       0.332225037
Thiessen_half    08/09/2022 9:39       0.16518438
Thiessen_half    08/09/2022 9:49       0.335549926
Thiessen_half    08/09/2022 9:59       1.496675111
Thiessen_half    08/09/2022 10:09      0.332225037
Thiessen_half    08/09/2022 10:19      0.497409417
Thiessen_half    08/09/2022 10:29      0.337406202
Thiessen_half    08/09/2022 10:39      0         
Thiessen_half    08/09/2022 10:49      0.16518438
Thiessen_half    08/09/2022 10:59      0.332225037
Thiessen_half    08/09/2022 11:09      0.664450074
Thiessen_half    08/09/2022 11:19      1.164450074
Thiessen_half    08/09/2022 11:29      1.664450074
Thiessen_half    08/09/2022 11:39      2.828900148
Thiessen_half    08/09/2022 11:49      1         
Thiessen_half    08/09/2022 11:59      1         
Thiessen_half    08/09/2022 12:09      0.832225037
Thiessen_half    08/09/2022 12:19      2.825187595
Thiessen_half    08/09/2022 12:29      0.675546711
Thiessen_half    08/09/2022 12:39      0.172956128
Thiessen_half    08/09/2022 12:49      0.167774963
Thiessen_half    08/09/2022 12:59      0.332225037
Thiessen_half    08/09/2022 13:09      0.167774963
Thiessen_half    08/09/2022 13:19      0.866636918
Thiessen_half    08/09/2022 13:29      0.005181165
Thiessen_half    08/09/2022 13:39      0.502590583
Thiessen_half    08/09/2022 13:49      0.667040657
Thiessen_half    08/09/2022 13:59      0.16518438
Thiessen_half    08/09/2022 14:09      0.332225037
Thiessen_half    08/09/2022 14:19      0         
Thiessen_half    08/09/2022 14:29      0         
Thiessen_half    08/09/2022 14:39      0.16518438
Thiessen_half    08/09/2022 14:49      0         
Thiessen_half    08/09/2022 14:59      0         
Thiessen_half    08/09/2022 15:09      0         
Thiessen_half    08/09/2022 15:19      0.332225037
Thiessen_half    08/09/2022 15:29      0         
Thiessen_half    08/09/2022 15:39      0         
Thiessen_half    08/09/2022 15:49      0         
Thiessen_half    08/09/2022 15:59      0.002590583
Thiessen_half    08/09/2022 16:09      0.16518438
Thiessen_half    08/09/2022 16:19      0         
Thiessen_half    08/09/2022 16:29      0.33481562
Thiessen_half    08/09/2022 16:39      0         
Thiessen_half    08/09/2022 16:49      0.16518438
Thiessen_half    08/09/2022 16:59      0.002590583
Thiessen_half    08/09/2022 17:09      0.497409417
Thiessen_half    08/09/2022 17:19      0.005181165
Thiessen_half    08/09/2022 17:29      0.16518438
Thiessen_half    08/09/2022 17:39      1         
Thiessen_half    08/09/2022 17:49      2.332959343
Thiessen_half    08/09/2022 17:59      9.187418676
Thiessen_half    08/09/2022 18:09      2.658534602
Thiessen_half    08/09/2022 18:19      0.837406202
Thiessen_half    08/09/2022 18:29      0.997409417
Thiessen_half    08/09/2022 18:39      1         
Thiessen_half    08/09/2022 18:49      0.66518438
Thiessen_half    08/09/2022 18:59      0.995553141
Thiessen_half    08/09/2022 19:09      1.164450074
Thiessen_half    08/09/2022 19:19      0.5       
Thiessen_half    08/09/2022 19:29      0.832225037
Thiessen_half    08/09/2022 19:39      0.33481562
Thiessen_half    08/09/2022 19:49      1.330368761
Thiessen_half    08/09/2022 19:59      1.835549926
Thiessen_half    08/09/2022 20:09      1.667774963
Thiessen_half    08/09/2022 20:19      0.667774963
Thiessen_half    08/09/2022 20:29      2.494084528
Thiessen_half    08/09/2022 20:39      2.177402987
Thiessen_half    08/09/2022 20:49      2.524049551
Thiessen_half    08/09/2022 20:59      5.147437965
Thiessen_half    08/09/2022 21:09      0.667040657
Thiessen_half    08/09/2022 21:19      0.16518438
Thiessen_half    08/09/2022 21:29      0         
Thiessen_half    08/09/2022 21:39      0         
Thiessen_half    08/09/2022 21:49      0.5       
Thiessen_half    08/09/2022 21:59      0.332225037
Thiessen_half    08/09/2022 22:09      0         
Thiessen_half    08/09/2022 22:19      0         
Thiessen_half    08/09/2022 22:29      0.66518438
Thiessen_half    08/09/2022 22:39      2.021458968
Thiessen_half    08/09/2022 22:49      6.824106646
Thiessen_half    08/09/2022 22:59      0.664450074
Thiessen_half    08/09/2022 23:09      0         
Thiessen_half    08/09/2022 23:19      0.002590583
Thiessen_half    08/09/2022 23:29      0         
Thiessen_half    08/09/2022 23:39      0.503324889
Thiessen_half    08/09/2022 23:49      1.175546711
Thiessen_half    08/09/2022 23:59      2.329634454
Thiessen_half    08/10/2022 0:09       0.002590583
Thiessen_half    08/10/2022 0:19       0.167774963
Thiessen_half    08/10/2022 0:29       0.332225037
Thiessen_half    08/10/2022 0:39       0.678137294
Thiessen_half    08/10/2022 0:49       2.329634454
Thiessen_half    08/10/2022 0:59       1.167774963
Thiessen_half    08/10/2022 1:09       0.505915472
Thiessen_half    08/10/2022 1:19       0.33481562
Thiessen_half    08/10/2022 1:29       0         
Thiessen_half    08/10/2022 1:39       0.16518438
Thiessen_half    08/10/2022 1:49       0         
Thiessen_half    08/10/2022 1:59       0         
Thiessen_half    08/10/2022 2:09       0.332225037
Thiessen_half    08/10/2022 2:19       0         
Thiessen_half    08/10/2022 2:29       0         
Thiessen_half    08/10/2022 2:39       0         
Thiessen_half    08/10/2022 2:49       0.002590583

[REPORT]
;;Reporting Options
INPUT      YES
SUBCATCHMENTS ALL
NODES ALL
LINKS ALL

[TAGS]

[MAP]
DIMENSIONS 197762.800 439988.800 203949.200 446527.200
Units      None

[COORDINATES]
;;Node           X-Coord            Y-Coord           
;;-------------- ------------------ ------------------
1                200318.159         444386.306        
MH2016           202294.000         443732.000        
MH2018           202225.000         443913.000        
MH2019           202362.000         443550.000        
MH2020           202187.000         444009.000        
NBC01-00         200784.000         444739.000        
NBC01-01         200801.000         444703.000        
NBC01-02         200885.000         444524.000        
NBC01-02.1       200841.000         444607.000        
NBC01-04         200942.000         444485.000        
NBC01-05         200977.000         444485.000        
NBC01-06         201072.000         444505.000        
NBC01-07         201084.000         444502.000        
NBC01-08         201126.000         444492.000        
NBC01-09         201169.000         444482.000        
NBC01-10         201201.000         444463.000        
NBC01-11         201256.000         444428.000        
NBC01-12         201300.000         444400.000        
NBC01-13         201340.000         444374.000        
NBC01-14         201420.000         444327.000        
NBC01-15         201511.000         444284.000        
NBC01-16         201604.000         444242.000        
NBC01-17         201640.000         444225.000        
NBC01-17.1       201695.000         444201.000        
NBC01-18.1       201745.000         444095.000        
NBC01-18.2       201794.000         444021.000        
NBC01-19         201836.000         443976.000        
NBC01-20         202015.000         444032.000        
NBC01-20.1       202206.000         444104.000        
NBC02-01         200828.000         444433.000        
NBC03-01         200957.000         444414.000        
NBC03-02         200968.000         444368.000        
NBC03-03         200987.000         444260.000        
NBC03-04         201004.000         444176.000        
NBC03-05         201028.000         444025.000        
NBC04-01         201296.000         444315.000        
NBC04-02         201244.000         444258.000        
NBC09-00         199515.000         444026.000        
NBC10-00         199058.000         444084.000        
NBC11-02         198895.000         443988.000        
NBC11-03         198916.000         443970.000        
NBC12-00         199237.000         444116.000        
NBC13-01         199130.000         444226.000        
NBC13-02         199115.000         444279.000        
NBC13-03         199144.000         444299.000        
NBC13-04         199114.000         444422.000        
NBC13-05         199093.000         444507.000        
NBC14-01         198696.000         444265.000        
NBC14-02         198712.000         444282.000        
NBC14-03         198761.000         444327.000        
NBC14-04         198838.000         444346.000        
NBC14-05         199012.000         444393.000        
NBC15-01         198728.000         444263.000        
NBC15-02         198744.000         444244.000        
NBC16-00         198424.000         444408.000        
NBC16-02         198486.000         444501.000        
NBC16-03         198491.000         444511.000        
NBC16-04         198693.000         444562.000        
NBC16-05         198843.000         444601.000        
NBC16-06         198950.000         444630.000        
NBC16-07         199051.000         444657.000        
NBC17-01         198474.000         444569.000        
NBC18-01         198314.000         444492.000        
NBP01-01         199637.000         444215.000        
NBP01-03         199733.000         444263.000        
NBP01-04         199992.000         444390.000        
NBP01-05         200237.000         444520.000        
NBP01-06         200577.000         444690.000        
NBP01-07         200722.000         444759.000        
NBP01-08         200900.000         444807.000        
NBP01-09         201239.000         444747.000        
NBP01-10         201444.000         444631.000        
NBP01-11         201493.000         444629.000        
NBP01-12         201572.000         444644.000        
NBP01-13         201743.000         444692.000        
NBP01-14         201793.000         444597.000        
NBP01-14.1       201804.000         444566.000        
NBP01-15         201853.000         444438.000        
NBP01-16         201886.000         444352.000        
NBP01-17         201933.000         444227.000        
NBP01-18         201957.000         444165.000        
NBP01-19         201999.000         444050.000        
NBP01-20         201989.000         444035.000        
NBP01-20.1       202011.000         444018.000        
NBP01-20.2       202030.000         443970.000        
NBP01-21         202052.000         443912.000        
NBP01-22         202072.000         443860.000        
NBP01-22.1       202083.000         443830.000        
NBP01-23         202141.000         443676.000        
NBP01-24         202215.000         443485.000        
NBP01-25         202278.000         443310.000        
NBP01-26         202202.000         443282.000        
NBP01-27         202131.000         443255.000        
NBP01-28         202103.000         443245.000        
NBP01-29         201980.000         443190.000        
NBP01-30         201909.000         443161.000        
NBP01-31         201681.000         443074.000        
NBP02-01         199959.000         444466.000        
NBP02-02         199870.000         444680.000        
NBP02-03         199861.000         444707.000        
NBP02-04         199677.000         444796.000        
NBP03-01         200177.000         444684.000        
NBP03-02         200159.000         444735.000        
NBP03-03         200210.000         444807.000        
NBP03-04         200195.000         444835.000        
NBP04-01         200490.000         444916.000        
NBP04-02         200477.000         444947.000        
NBP04-03         200542.000         445017.000        
NBP04-04         200615.000         445044.000        
NBP04-05         200688.000         445075.000        
NBP04-06         200620.000         445229.000        
NBP04-07         200602.000         445278.000        
NBP04-08         200611.000         445309.000        
NBP04-09         200678.000         445480.000        
NBP04-10         200768.000         445579.000        
NBP04-11         200800.000         445712.000        
NBP04-12         200695.000         445822.000        
NBP04-13         200683.000         445875.000        
NBP05-01         200538.000         445249.000        
NBP05-02         200325.000         445168.000        
NBP05-03         200277.000         445372.000        
NBP06-01         200921.000         445082.000        
NBP06-02         200929.000         445159.000        
NBP06-03         200987.000         445240.000        
NBP06-04         201053.000         445326.000        
NBP06-05         201120.000         445428.000        
NBP06-06         201113.000         445743.000        
NBP06-07         201144.000         445881.000        
NBP06-08         201173.000         445977.000        
NBP06-09         201187.000         446029.000        
NBP06-11         201241.000         446230.000        
NBP06-12         201434.000         446188.000        
NBP07-01         201253.000         445957.000        
NBP07-02         201342.000         445957.000        
NBP08-01         201322.000         445496.000        
NBP08-02         201369.000         445512.000        
NBP08-03         201454.000         445592.000        
NBP08-04         201503.000         445556.000        
NBP08-06         201488.000         445638.000        
NBP09-01         201244.000         444907.000        
NBP09-02         201454.000         445019.000        
NBP10-01         201211.000         444994.000        
NBP11-01         201794.000         444754.000        
NBP11-02         201828.000         444800.000        
NBP11-03         201879.000         444859.000        
NBP11-04         201967.000         444957.000        
NBP11-05         202000.000         445005.000        
NBP11-05.1       202047.000         445057.000        
NBP11-06         202088.000         445101.000        
NBP11-07         202176.000         445135.000        
NBP12-01         202047.000         445202.000        
NBP12-02         202007.000         445305.000        
NBP13-01         201922.000         443801.000        
NBP13-01.1       201840.000         443774.000        
NBP13-01.2       201780.000         443750.000        
NBP13-02         201736.000         443737.000        
NBP13-03         201765.000         443626.000        
NBP13-04         201712.000         443595.000        
NBP13-05         201607.000         443559.000        
NBP13-06         201543.000         443531.000        
NBP13-07         201357.000         443459.000        
NBP13-08         201277.000         443443.000        
NBP13-09         201219.000         443438.000        
NBP13-10         201231.000         443341.000        
NBP13-11         201244.000         443240.000        
NBP13-12         201330.000         443252.000        
NBP13-13         201374.000         443257.000        
NBP13-14         201417.000         443263.000        
NBP14-01         201193.000         443233.000        
NBP15-01         202189.000         443100.000        
NBPC-01          198077.000         444703.000        
NBPC-02          198121.000         444613.000        
NBPC-03          198175.000         444523.000        
NBPC-04          198250.000         444458.000        
NBPC-05          198336.000         444412.000        
NBPC-06          198420.000         444359.000        
NBPC-07          198505.000         444303.000        
NBPC-08          198581.000         444238.000        
NBPC-09          198649.000         444163.000        
NBPC-10          198716.000         444089.000        
NBPC-11          198808.000         444046.000        
NBPC-12          198908.000         444053.000        
NBPC-13          199000.000         444090.000        
NBPC-14          199093.000         444128.000        
NBPC-15          199190.000         444151.000        
NBPC-17          199379.000         444085.000        
NBPC-18          199471.000         444098.000        
NBPC-19          199563.000         444137.000        
NBPC-20          199655.000         444182.000        
NBPC-21          199746.000         444227.000        
NBPC-22          199837.000         444272.000        
NBPC-23          199925.000         444316.000        
NBPC-24          200017.000         444361.000        
NBPC-25          200109.000         444407.000        
NBPC-26          200196.000         444446.000        
NBPC-27          200289.000         444487.000        
NBPC-28          200363.000         444525.000        
NBPC-29          200453.000         444571.000        
NBPC-30          200544.000         444616.000        
NBPC-31          200635.000         444662.000        
NBPC-32          200724.000         444708.000        
NH1-01           201740.000         443903.000        
NH1-02           201744.000         443894.000        
NH7              202371.000         443772.000        
NH7.1            202344.000         443843.000        
NHM_006          198909.000         440290.000        
NHM_010          198901.000         440407.000        
NHM_016          198871.000         440286.000        
NHM_022          198869.000         440589.000        
NHM_034          198885.000         440551.000        
NNH01-00         202222.000         444111.000        
NNH01-01         202191.000         444257.000        
NNH01-01.1       202216.000         444192.000        
NNH01-01.2       202211.000         444207.000        
NNH01-01.3       202204.000         444221.000        
NNH01-02         202112.000         444463.000        
NNH01-03         202068.000         444470.000        
NNH01-04         202002.000         444515.000        
NNH01-05         201951.000         444624.000        
NNH01-05.1       201944.000         444638.000        
NNH01-06         201942.000         444652.000        
NNH01-07         201981.000         444771.000        
NNH01-07.1       202020.000         444816.000        
NNH01-09         202060.000         444862.000        
NNH01-10         202097.000         444906.000        
NNH01-11         202237.000         444987.000        
NNH01-12         202324.000         445019.000        
NNH01-13         202322.000         445075.000        
NNH01-14         202313.000         445186.000        
NNH01-15         202255.000         445247.000        
NNH01-16         202334.000         445345.000        
NNH01-17         202406.000         445434.000        
NNH01-18         202427.000         445484.000        
NNH01-19         202447.000         445527.000        
NNH01-20         202405.000         445644.000        
NNH01-21         202397.000         445669.000        
NNH01-22         202449.000         445695.000        
NNH01-23         202497.000         445783.000        
NNH01-24         202608.000         445823.000        
NNH01-25         202630.000         445832.000        
NNH01-26         202706.000         445863.000        
NNH01-27         202720.000         445869.000        
NNH01-28         202820.000         445908.000        
NNH01-29         202797.000         445966.000        
NNH02-01         202197.000         444496.000        
NNH02-02         202246.000         444514.000        
NNH03-01         202213.000         444446.000        
NNH03-02         202234.000         444390.000        
NNH03-03         202253.000         444336.000        
NNH04-01         202173.000         444557.000        
NNH04-02         202139.000         444640.000        
NNH04-03         202125.000         444680.000        
NNH04-04         202220.000         444728.000        
NNH05-01         202090.000         444770.000        
NNH05-02         202108.000         444727.000        
NNH05-03         202215.000         444756.000        
NNH06-01         202125.000         444836.000        
NNH07-01         202433.000         444992.000        
NNH07-02         202538.000         444967.000        
NNH07-03         202651.000         445090.000        
NNH07-04         202770.000         445134.000        
NNH07-05         202866.000         445133.000        
NNH07-06         202891.000         445140.000        
NNH07-07         202953.000         445161.000        
NNH07-08         202971.000         445166.000        
NNH07-09         203012.000         445064.000        
NNH07-10         203059.000         445076.000        
NNH07-11         203111.000         445096.000        
NNH07-12         203212.000         445136.000        
NNH07-13         203302.000         445174.000        
NNH07-14         203333.000         445192.000        
NNH08-01         202464.000         444913.000        
NNH08-02         202483.000         444859.000        
NNH08-03         202516.000         444842.000        
NNH09-01         202636.000         445124.000        
NNH10-01         203024.000         445034.000        
NNH10-02         203049.000         444964.000        
NNH10-03         203055.000         444891.000        
NNH10-04         203095.000         444787.000        
NNH11-01         203118.000         445068.000        
NNH11-02         203224.000         445108.000        
NNH11-03         203325.000         445144.000        
NNH11-04         203360.000         445154.000        
NNH12-01         202398.000         445294.000        
NNH12-02         202463.000         445247.000        
NNH13-01         202516.000         445443.000        
NNH14-01         202533.000         445465.000        
NNH14-02         202593.000         445426.000        
NNH15-01         202466.000         445668.000        
NNH15-02         202480.000         445669.000        
NNH15-03         202577.000         445707.000        
NNH15-04         202663.000         445740.000        
NNH15-05         202727.000         445768.000        
NNH15-06         202857.000         445816.000        
NNH15-07         203037.000         445884.000        
NNH16-01         202752.000         445705.000        
NNH17-01         202298.000         445629.000        
NNH17-02         202179.000         445580.000        
NNH18-01         202565.000         445738.000        
NNH18-02         202653.000         445771.000        
NNH18-03         202715.000         445796.000        
NNH18-04         202798.000         445822.000        
NNH18-05         202844.000         445848.000        
NNH18-06         202974.000         445897.000        
NNH18-07         203075.000         445934.000        
NSC01-01         202444.000         443329.000        
NSC01-02         202469.000         443266.000        
NSC01-03         202491.000         443208.000        
NSC01-04         202552.000         443047.000        
NSC01-05         202572.000         442994.000        
NSC01-06         202578.000         442982.000        
NSC01-07         202426.000         442925.000        
NSC01-07.1       202391.000         442910.000        
NSC01-08         202289.000         442871.000        
NSC01-09         202162.000         442822.000        
NSC01-10         202123.000         442807.000        
NSC01-11         202072.000         442803.000        
NSC01-11.1       202087.000         442793.000        
NSC01-12         202025.000         442786.000        
NSC01-13         201917.000         442744.000        
NSC01-14         201829.000         442711.000        
NSC01-15         201809.000         442674.000        
NSC01-16         201841.000         442586.000        
NSC01-17         201867.000         442521.000        
NSC01-18         201850.000         442504.000        
NSC01-19         201776.000         442427.000        
NSC01-20         201724.000         442314.000        
NSC01-21         201728.000         442289.000        
NSC01-22         201740.000         442255.000        
NSC02-01         202705.000         443032.000        
NSC02-02         202730.000         443040.000        
NSC02-03         202755.000         443050.000        
NSC02-04         202832.000         443090.000        
NSC03-01         202849.000         443073.000        
NSC04-01         202770.000         442986.000        
NSC05-01         202601.000         442924.000        
NSC05-02         202626.000         442856.000        
NSC05-03         202650.000         442792.000        
NSC05-04         202670.000         442738.000        
NSC05-05         202695.000         442663.000        
NSC05-06         202715.000         442612.000        
NSC05-07         202749.000         442522.000        
NSC05-08         202767.000         442474.000        
NSC06-01         202450.000         442867.000        
NSC06-02         202528.000         442660.000        
NSC06-03         202557.000         442493.000        
NSC06-04         202569.000         442437.000        
NSC06-05         202581.000         442416.000        
NSC07-01         202312.000         442813.000        
NSC07-02         202304.000         442748.000        
NSC07-03         202270.000         442655.000        
NSC07-04         202249.000         442602.000        
NSC08-01         202481.000         442422.000        
NSC08-02         202278.000         442388.000        
NSC08-03         202217.000         442343.000        
NSC09-01         202331.000         442738.000        
NSC09-02         202359.000         442727.000        
NSC10-00         201118.000         443237.000        
NSC10-01         201136.000         443097.000        
NSC10-02         201153.000         442969.000        
NSC10-03         201157.000         442950.000        
NSC10-04         201162.000         442895.000        
NSC10-05         201176.000         442803.000        
NSC10-06         201191.000         442684.000        
NSC10-07         201133.000         442649.000        
NSC10-08         201023.000         442584.000        
NSC10-09         200974.000         442555.000        
NSC10-10         200901.000         442511.000        
NSC10-11         200848.000         442481.000        
NSC10-12         200852.000         442397.000        
NSC10-13         200853.000         442310.000        
NSC10-14         200860.000         442166.000        
NSC10-15         200861.000         442073.000        
NSC10-16         200865.000         441933.000        
NSC10-17         200867.000         441892.000        
NSC11-01         201236.000         442920.000        
NSC11-02         201463.000         443006.000        
NSC11-03         201480.000         442956.000        
NSC11-04         201507.000         442883.000        
NSC11-05         201523.000         442841.000        
NSC12-01         201220.000         442490.000        
NSC12-02         201236.000         442389.000        
NSC12-03         201252.000         442272.000        
NSC12-04         201208.000         442121.000        
NSC12-05         201199.000         442075.000        
NSC13-01         201055.000         442449.000        
NSC13-02         201064.000         442406.000        
NSC13-03         201144.000         442225.000        
NSC14-01         201035.000         442522.000        
NSC15-00.1       201805.000         443869.000        
NSC15-00.2       201764.000         443832.000        
NSC15-00.3       201698.000         443776.000        
NSC15-01         201600.000         443719.000        
NSC15-02         201348.000         443634.000        
NSC15-03         201180.000         443589.000        
NSC15-04         201118.000         443566.000        
NSC15-05         201005.000         443522.000        
NSC15-06         201025.000         443471.000        
NSC15-06.1       201043.000         443427.000        
NSC15-07         201057.000         443391.000        
NSC15-08         201086.000         443319.000        
NSC16-01         200918.000         443430.000        
NSC16-02         200886.000         443419.000        
NSC16-03         200784.000         443378.000        
NSC16-04         200714.000         443352.000        
NSC16-05         200669.000         443331.000        
NSC17-01         200591.000         443528.000        
NSC18-01         200998.000         443369.000        
NSC18-02         200952.000         443349.000        
NSC18-03         200902.000         443329.000        
NSC19-01         201040.000         443297.000        
NSC19-02         201012.000         443280.000        
NSC19-03         200969.000         443260.000        
NSC19-04         200922.000         443238.000        
NSC19-05         200854.000         443198.000        
NSC19-06         200791.000         443163.000        
NSC19-07         200697.000         443118.000        
NSC19-08         200663.000         443106.000        
NSC19-09         200616.000         443089.000        
NSC19-10         200533.000         443070.000        
NSC19-11         200461.000         443071.000        
NSC19-12         200338.000         443027.000        
NSC20-01         200656.000         442983.000        
NSC20-02         200688.000         442901.000        
NSC20-03         200654.000         442765.000        
NSC20-04         200641.000         442713.000        
NSC20-05         200593.000         442619.000        
NSC20-06         200565.000         442563.000        
NSC20-07         200663.000         442518.000        
NSC20-08         200657.000         442376.000        
NSC20-09         200585.000         442358.000        
NSC20-10         200400.000         442313.000        
NSC21-01         200584.000         442331.000        
NSC21-02         200582.000         442285.000        
NSC21-03         200579.000         442240.000        
NSC21-04         200578.000         442126.000        
NSC21-05         200592.000         442087.000        
NSC21-06         200613.000         442028.000        
NSC22-01         200490.000         442310.000        
NSC23-01         200535.000         442673.000        
NSC23-02         200475.000         442652.000        
NSC23-03         200390.000         442645.000        
NSC23-04         200317.000         442654.000        
NSR01-00         199745.000         444207.000        
NSR01-01         199757.000         444179.000        
NSR01-02         199783.000         444119.000        
NSR01-03         199787.000         444051.000        
NSR01-05         199781.000         443955.000        
NSR01-06         199845.000         443950.000        
NSR01-07         199885.000         443856.000        
NSR01-08         199879.000         443760.000        
NSR01-09         199933.000         443757.000        
NSR01-10         199984.000         443753.000        
NSR01-11         200043.000         443744.000        
NSR02-02         199704.000         444151.000        
NSR02-03         199732.000         444054.000        
NSR02-04         199670.000         444057.000        
NSR02-05         199663.000         443970.000        
NTP00            200855.000         443538.000        
NTP01            200611.000         443982.000        
NYS01-02         202511.000         443421.000        
NYS01-02.1       202345.000         443849.000        
NYS01-02.2       202374.000         443773.000        
NYS01-02.3       202416.000         443662.000        
NYS01-02.4       202419.000         443663.000        
NYS0102.5        202422.000         443664.000        
NYS01-02.6       202473.000         443512.000        
NYS01-02.7       202476.000         443514.000        
NYS01-02.8       202479.000         443515.000        
NYS01-03         202561.000         443418.000        
NYS01-03.1       202569.000         443423.000        
NYS01-04         202600.000         443432.000        
NYS01-05         202668.000         443458.000        
NYS01-06         202740.000         443486.000        
NYS01-07         202801.000         443508.000        
NYS01-08         202885.000         443540.000        
NYS01-09         202945.000         443559.000        
NYS01-10         203040.000         443592.000        
NYS01-11         203116.000         443620.000        
NYS01-12         203200.000         443653.000        
NYS01-13         203259.000         443597.000        
NYS01-14         203325.000         443523.000        
NYS01-15         203356.000         443440.000        
NYS01-16         203387.000         443360.000        
NYS01-17         203403.000         443318.000        
NYS01-18         203414.000         443289.000        
NYS01-19         203429.000         443241.000        
NYS02-00         202285.000         444130.000        
NYS02-01         202325.000         444149.000        
NYS02-02         202339.000         444116.000        
NYS02-03         202359.000         444061.000        
NYS02-04         202433.000         444020.000        
NYS02-05         202565.000         444072.000        
NYS02-06         202695.000         444118.000        
NYS03-01         202300.000         444217.000        
NYS05-00         202423.000         443786.000        
NYS05-02         202459.000         443800.000        
NYS05-03         202443.000         443844.000        
NYS05-04         202426.000         443890.000        
NYS05-05         202420.000         443918.000        
NYS05-06         202467.000         443986.000        
NYS05-07         202535.000         444014.000        
NYS05-08         202608.000         444042.000        
NYS05-09         202696.000         444076.000        
NYS05-10         202766.000         444103.000        
NYS05-11         202796.000         444114.000        
NYS06-01         202465.000         443788.000        
NYS07-01         202773.000         443400.000        
NYS07-02         202798.000         443324.000        
NYS08-02         202877.000         443559.000        
NYS08-03         202863.000         443601.000        
NYS08-04         202803.000         443755.000        
NYS08-05         202754.000         443909.000        
NYS08-06         202825.000         443936.000        
NYS08-07         202897.000         443964.000        
NYS08-08         203002.000         444003.000        
NYS08-09         202939.000         444172.000        
NYS08-10         202925.000         444209.000        
NYS08-11         202901.000         444270.000        
NYS08-12         202840.000         444426.000        
NYS09-01         202867.000         444187.000        
NYS09-02         202823.000         444169.000        
NYS10-01         203072.000         444263.000        
NYS10-02         203168.000         444308.000        
NYS11-01         203219.000         443779.000        
NYS11-02         203243.000         443855.000        
NYS11-03         203272.000         443942.000        
NYS11-04         203306.000         443956.000        
NYS12-01         203355.000         443636.000        
NYS12-02         203417.000         443659.000        
NYS12-03         203498.000         443706.000        
NYS12-04         203584.000         443762.000        
NYS12-05         203668.000         443813.000        
NYS12-06         203642.000         443875.000        
NYS13-01         202891.000         443520.000        
NYS13-02         202927.000         443426.000        
NYS13-03         202977.000         443300.000        
NYS13-04         203027.000         443171.000        
NYS13-05         203136.000         443199.000        
NYS13-06         203209.000         443228.000        
NYS13-07         203311.000         443261.000        
NYS13-08         203399.000         443296.000        
NYS14-01         202895.000         443488.000        
NYS14-02         202923.000         443416.000        
NYS14-03         202968.000         443296.000        
NYS15-01         202915.000         443486.000        
NYS15-02         202933.000         443435.000        
NYS15-03         202955.000         443382.000        
NYS16-01         203449.000         443335.000        
NYS16-02         203478.000         443346.000        
NYS16-03         203523.000         443380.000        
NYS16-04         203605.000         443396.000        
NYS17-01         203526.000         443330.000        
NYS18-01         203027.000         443411.000        
NYS18-02         203098.000         443436.000        
NYS90            202321.000         443922.000        
NYS92-01         202383.000         443770.000        
NYS92-01.1       202351.000         443851.000        
NYS95-00         202306.000         443962.000        
NYS95-01         202302.000         443973.000        
NYS96-1.2        202272.000         444035.000        
NYS96-2.2        202275.000         444036.000        
NYS99-02         202305.000         443982.000        
NYS99-03         202321.000         443942.000        
NYS99-04         202337.000         443936.000        
NYS99-05         202363.000         443924.000        
NYS99-06         202365.000         443911.000        
ooooo            201019.000         443474.000        
SDCM_001         198810.000         440617.000        
SDCM_003         198733.000         440730.000        
SDCM_004         198701.000         440745.000        
SDCM_006         198496.000         440996.000        
SDCM_007         198455.000         441067.000        
SDCM_008         198435.000         441123.000        
SDCM_009         198448.000         441210.000        
SDCM_010         198445.000         441254.000        
SDCM_011         198416.000         441351.000        
SDCM_012         198428.000         441496.000        
SDCM_013         198428.000         441556.000        
SDCM_014         198407.000         441614.000        
SDCM_016         198397.000         441703.000        
SDCM_016_1       198389.000         441786.000        
SDCM_017         198389.000         441797.000        
SDCM_017_1       198375.000         441906.000        
SDCM_020         198375.000         442009.000        
SDCM_020_2       198375.000         442046.000        
SDCM_023         198386.000         442222.000        
SDCM_024         198389.000         442282.000        
SDCM_025         198404.000         442459.000        
SDCM_026         198415.000         442482.000        
SDCM_026_1       198464.000         442583.000        
SDCM_027         198468.000         442605.000        
SDCM_028         198567.000         442744.000        
SDCM_031         198734.000         443001.000        
SDCM_032         198753.000         443096.000        
SDCM_033         198760.000         443148.000        
SDCM_034         198770.000         443247.000        
SDCM_035         198745.000         443381.000        
SDCM_036         198710.000         443538.000        
SDCM_037         198681.000         443679.000        
SDCM_038         198625.000         443926.000        
SDCM_039         198605.000         444010.000        
SDCM_039_1       198613.000         444076.000        
Temp             199281.000         444123.000        
NBPC-00          198044.000         444771.000        
Str_BP           199398.000         444204.000        
Str_Sc           201853.000         443998.000        
Str_SR           199723.000         444153.000        
Str_SP           201490.000         444580.000        

[VERTICES]
;;Link           X-Coord            Y-Coord           
;;-------------- ------------------ ------------------

[Polygons]
;;Subcatchment   X-Coord            Y-Coord           
;;-------------- ------------------ ------------------

;;Storage Node   X-Coord            Y-Coord           
;;-------------- ------------------ ------------------
Str_BP           199398.000         444204.000        
Str_Sc           201853.000         443998.000        
Str_SR           199723.000         444153.000        
Str_SP           201490.000         444580.000        

[SYMBOLS]
;;Gage           X-Coord            Y-Coord           
;;-------------- ------------------ ------------------
2                200809.573         444023.070        

